24
 xtb: 6.7.1 (b9eb0ff)
C           -3.27224054361160       -1.05528020094377        0.00767971378654
N           -2.27559458545895       -0.01975224468475       -0.00286651016547
C           -0.91313001892859       -0.20498252533594        0.00999237121794
C           -0.37077123628571        1.07315511753906        0.00452031525392
N           -1.34770178632923        2.00581407417850       -0.01311187514784
C           -2.46626112214225        1.31248213108462       -0.01489098111740
H           -3.44188296575572        1.76090109937100       -0.01595237643899
N            0.97178989972835        1.28310832369128        0.00097494906924
C            1.82857358110603        0.20333970171568       -0.00779800486985
O            3.03272144386828        0.34131456058609       -0.02470383941972
N            1.25304510374751       -1.06243752830005       -0.00966622473209
C           -0.10558804224986       -1.38602631909121        0.01065949593882
O           -0.49976290202456       -2.53891030000505        0.02518681012742
C            2.20241963617900       -2.16321206299252       -0.02365349894593
H            1.63215663159347       -3.08957610400491        0.01420589744310
H            2.81588220656162       -2.11708355745649       -0.90863065319140
H            2.85354780325652       -2.09290399056234        0.86074886131070
C            1.50579711917957        2.62672993172090        0.03490788435570
H            0.76509163838729        3.29820602567959       -0.40782982627897
H            1.74945537794648        2.92623147972117        1.05010851666107
H            2.44313757746549        2.62840322761900       -0.57418963734166
H           -2.75518217159618       -2.01944456456175       -0.03348420718632
H           -3.92522508406363       -0.96136583674084       -0.86235497511510
H           -3.87020328149035       -1.00556002748915        0.91268180482796
