113
 xtb: 6.7.1 (b9eb0ff)
C           -2.25870214736130       -2.23228633852315       -0.33803412821125
C           -0.95171646577774       -2.37697148420744       -0.57416876237492
C           -0.36867992081701       -2.46824974178303       -1.95859900313449
H           -0.41049427509500       -1.47724628359974       -2.43096918613297
H           -0.94659308071966       -3.16161264441426       -2.56929201180300
H            0.66875175282221       -2.79080325576503       -1.90852272705281
C            0.00329667256180       -2.26394781342225        0.57512430761340
C           -0.34459452083753       -0.97008241718987        1.32623835818567
H            0.01118983156508       -0.13367627586762        0.73479714680720
H            0.17036450164328       -0.96845645714504        2.28751830430055
C           -1.85497704981899       -0.80526559251488        1.59480946304602
O           -2.08869790007688       -0.83426118146791        2.99626651616246
H           -2.03905392707300        0.07287152326470        3.36432238814701
C           -2.67537273375303       -2.02675524517131        1.10014536072432
C           -4.13885024843539       -1.71803857122139        1.41345431245539
H           -4.53846862448995       -0.90155818511329        0.82666421579530
H           -4.77232566539602       -2.58852182507075        1.26280847631006
H           -4.18892105335590       -1.43622155376856        2.46299860911222
C           -2.34032220280823       -3.27650312169416        1.95684124691629
H           -1.67400541664944       -3.02016888646782        2.76974755299450
H           -1.89701851056622       -4.06121541332993        1.34538108231656
H           -3.25944704154501       -3.67826143208857        2.38751211836357
C           -2.34663578193998        0.54643565485286        1.02921877945578
H           -3.27129146483606        0.80928703970805        1.55000990735241
O           -1.33311308424124        1.51067394162555        1.31583177179716
C           -1.22009943966743        1.97198096149223        2.51775826704804
O           -1.84006434540333        1.61740319951997        3.51165562199511
C           -0.19283036903583        3.03939221188866        2.59635432340822
C            0.01770086000164        3.67455014509899        3.81692465794853
C            0.96231070679939        4.67753490415958        3.93169332252525
C            1.70706661185505        5.05311734866469        2.82324360636499
C            1.50773653838302        4.42372242147105        1.60370706703963
C            0.56338719846848        3.41885080530652        1.49087057735803
H            0.41038534499909        2.89613645416892        0.54784649748256
H            2.10987689458459        4.69962620580298        0.74052051677642
H            2.44822324212025        5.84027696583023        2.90435694840285
H            1.10775776615997        5.18926570219766        4.87318323545506
H           -0.59070539486223        3.38033948900754        4.66401382423302
C           -2.55205992988157        0.69934881259525       -0.51141007606604
H           -1.86305265405095        0.01064030834727       -0.99371222878708
C           -2.08119472922488        2.10787835454540       -0.90576403250029
C           -2.55950790329228        3.26712894984139       -0.02911838468478
H           -3.19383083895747        3.01107105567578        0.82119444890783
H           -1.75003043861001        3.92775567333896        0.29650279591591
O           -3.32488791807756        3.84321422812455       -1.11371290757788
C           -2.75972814600568        2.89035143383136       -2.04621455240201
C           -3.83304693272412        2.25290114290453       -2.89371436289144
H           -3.62872940337951        2.39432485941971       -3.95232063989256
H           -4.78224396076601        2.74640566251377       -2.66414003456860
C           -3.98635971712287        0.76647891104590       -2.61530601755237
O           -5.22360748683054        0.41467309505628       -3.19915240483250
H           -5.60284309898258       -0.33916540668055       -2.71107198612089
H           -3.15809935271667        0.22949863862792       -3.09015947603442
C           -3.94792209442879        0.40097428034718       -1.09935763405658
C           -4.31213769463753       -1.07135448107605       -1.23494750814815
O           -5.46515395983879       -1.37768797196088       -1.42441166446524
C           -3.16792051813902       -2.00481553198631       -1.51683373613710
H           -2.55988976602608       -1.42523291804778       -2.23043207696368
O           -3.46331087058759       -3.13902718691985       -2.31046241599888
C           -4.28792340552677       -4.08581475358006       -2.03998408747144
O           -4.46578742386381       -4.95734917417729       -2.88057086210865
C           -5.00305436594131       -4.17951018869029       -0.70886844382237
H           -5.58932092457637       -5.08802266173159       -0.70030312927366
H           -5.63025625605213       -3.32100724045364       -0.57822610568398
H           -4.26315035168302       -4.23007764954272        0.09519542219950
C           -5.07552240139315        1.16624207747009       -0.40786510048929
H           -5.06282284267165        0.99745945040149        0.66911555784493
H           -4.98914193078137        2.23826590299139       -0.58413148072081
H           -6.02522426218993        0.81020132868551       -0.80429473254529
H           -2.00611477704094        3.38178930538572       -2.66262813238029
O           -0.67537016588674        2.17430901281381       -1.05445725416659
C           -0.15017079554421        1.44170554568162       -1.98020751100551
O           -0.72467431180036        0.65599423898863       -2.71432449420410
C            1.34080164261166        1.68551539950655       -2.06984130951298
H            1.75191457719386        1.08121351504747       -2.87432944828988
H            1.81683406937947        1.42769267490746       -1.13857635780752
H            1.53199944605314        2.74427960429551       -2.27851858892069
H           -0.12113051962811       -3.10715103595293        1.25772466649204
O            1.33713979195489       -2.25034767290912        0.10327194749834
C            2.18830501795840       -2.70044199925742        0.96208714664547
O            1.97887591857990       -3.04837061010442        2.11447590287126
C            3.60684740511960       -2.77807112630371        0.43998615215212
O            4.40776671130898       -3.33658280305764        1.46096673451478
H            3.80481377070434       -3.46221020260225        2.22393870716055
H            3.66243988742602       -3.40109487247044       -0.44989616334861
C            4.12898916682518       -1.36939449465983        0.09054765115468
N            3.33409362093624       -0.87485704743940       -1.00158536846602
C            3.78599209073418       -0.54534675307302       -2.23226952670986
O            3.05036300752546       -0.50404439942407       -3.20190253128001
C            5.21808550560453       -0.17974568580282       -2.35237383731796
C            5.87174356341303        0.62299002969865       -1.42352278590525
C            7.19091836090336        0.99280837379644       -1.62429240074961
C            7.86840974726658        0.56522356458817       -2.75494055109783
C            7.21925227404316       -0.21873510728192       -3.69673150295301
C            5.89836939308274       -0.57762495094704       -3.49959532492556
H            5.36254956609857       -1.17993515170788       -4.23857225425949
H            7.73672936625480       -0.55387413713907       -4.59495071912892
H            8.90511980656070        0.83052773407802       -2.91376077580116
H            7.70297562776214        1.60304634965779       -0.89892513629369
H            5.34417086390757        0.96886160645870       -0.54774272878546
H            2.35513631892622       -1.13877247762045       -0.92972075883790
C            4.05323013960916       -0.49996103545964        1.31338426591958
C            3.01946473494784        0.40313780223082        1.51025470359399
C            2.94313284092522        1.14050868803846        2.67996765295542
C            3.90104943374952        0.97737114526347        3.66735923811946
C            4.93450264715856        0.07221631480773        3.48212886086495
C            5.00618550679815       -0.66252413879923        2.31103920976349
H            5.81166572208056       -1.36700242920410        2.15159665913052
H            5.69599432520350       -0.04718134107075        4.24734769727955
H            3.83987774940182        1.55144310324008        4.58992801507535
H            2.11685127427053        1.82658046014682        2.84051530573360
H            2.25573868594341        0.52362135888309        0.75104829069819
H            5.16328538075051       -1.44898778686115       -0.23134117213554
