113
 xtb: 6.7.1 (b9eb0ff)
C           -2.26686897775339       -2.22854811681925       -0.34009723848565
C           -0.95845719399419       -2.37362845099554       -0.56892019183619
C           -0.36996008354866       -2.46720795652389       -1.95104344390719
H           -0.40971688547425       -1.47700334337588       -2.42894314259530
H           -0.94680435115617       -3.16096286020983       -2.56766036567413
H            0.66805998265987       -2.79134071179314       -1.90517973196285
C           -0.00768881567360       -2.26022390091023        0.58410119198553
C           -0.36042749858717       -0.96940957988515        1.33848959071131
H            0.00803599995682       -0.13296766120583        0.73997802558020
H            0.16392567846669       -0.96965682877494        2.29208814801999
C           -1.87240578309167       -0.80230548027730        1.59765098400215
O           -2.12091708949853       -0.83342748825152        2.99726910130528
H           -2.04331488957694        0.07243608146947        3.36573173698419
C           -2.69047188359364       -2.02257994211149        1.09659132467243
C           -4.15498225374260       -1.71333984406937        1.40542120442717
H           -4.54177194927328       -0.89845703073777        0.82592676490523
H           -4.77766528645259       -2.58623579636173        1.25789052340159
H           -4.19454117625179       -1.43707840206644        2.46119507994976
C           -2.35828448520921       -3.27262218906541        1.95416083044852
H           -1.67995811308095       -3.01910280628251        2.76957711650899
H           -1.90148364772066       -4.06010281294428        1.34512902111842
H           -3.26505960346226       -3.67700785064283        2.38597294266587
C           -2.35853720904243        0.55188197489070        1.03197480046916
H           -3.27493442287898        0.81138040242358        1.55016165611224
O           -1.34556026394519        1.51529651048274        1.31922996343661
C           -1.21512063503358        1.96654753863662        2.52268819861426
O           -1.82242260206873        1.60774846324750        3.52348662619518
C           -0.18505013640172        3.03206989524027        2.59674367716092
C            0.02060036754088        3.67755227498904        3.81267904556012
C            0.96818663093557        4.67791512653272        3.92441338936141
C            1.72199358769212        5.03987371896453        2.81777495873970
C            1.52721129203077        4.40068080312589        1.60275159459153
C            0.57846817906920        3.39958100455738        1.49255963272026
H            0.41544123709460        2.88866140111378        0.54930665214635
H            2.11759650917267        4.68996461935876        0.74067111611809
H            2.45364785833015        5.83550034039010        2.90223253486562
H            1.10810031244689        5.19187697789818        4.86998338926694
H           -0.59177224666942        3.38404283720055        4.66244307053984
C           -2.55945169024990        0.70483967970949       -0.50937805811713
H           -1.86461233939020        0.01222178357181       -0.99217008822741
C           -2.08676575827586        2.11302282488929       -0.90330476552645
C           -2.56561226543465        3.27245978496301       -0.02737346228099
H           -3.19563922542340        3.01280239397351        0.82170755658192
H           -1.75157059776633        3.92909885881405        0.29692825539577
O           -3.33145636367869        3.84871581405984       -1.11264072745762
C           -2.76334002095545        2.89588070232692       -2.04488616294065
C           -3.83408899245278        2.25814536168097       -2.89569453901917
H           -3.62832812410542        2.39623083894810       -3.95272433863954
H           -4.78291121446435        2.74742451160675       -2.66527140251137
C           -3.98465510163372        0.77115476072776       -2.61860521890039
O           -5.21688519473706        0.41424702083341       -3.20993759314378
H           -5.60122150545161       -0.33933959305095       -2.71409812307739
H           -3.15631128521038        0.23175566328410       -3.08985487771184
C           -3.95343215173836        0.40669494266772       -1.10249258105266
C           -4.31639431966426       -1.06578604166710       -1.23857396254027
O           -5.46861064836094       -1.37717295571552       -1.42623761662239
C           -3.16904709220871       -1.99470703064843       -1.52349001517290
H           -2.55918440545129       -1.42074167297743       -2.23013172704062
O           -3.46621315223193       -3.11466128804880       -2.33520224992156
C           -4.23784412701691       -4.10204127856144       -2.04071731231729
O           -4.38457306777712       -4.98879402608652       -2.87237934840861
C           -4.94870214948639       -4.19797308974423       -0.70800949786002
H           -5.56866026587500       -5.09659963552662       -0.69694098947997
H           -5.61908444364281       -3.32903792647086       -0.58221512936273
H           -4.24784217902783       -4.22824106787496        0.09607451190468
C           -5.08352433949073        1.17228695729273       -0.41574716049598
H           -5.06640455286771        0.99923740603083        0.66684208125728
H           -4.99111257504995        2.24002091441721       -0.58616664211140
H           -6.02707691264741        0.81195932317315       -0.80771714079608
H           -2.00665902008304        3.38354253928858       -2.66151264251009
O           -0.68148938201377        2.18177539120510       -1.04830878699273
C           -0.14985284800403        1.44385953512340       -1.96809386997062
O           -0.71893510523170        0.65209279855730       -2.69797195895514
C            1.34048141819651        1.69219429792586       -2.05650602691095
H            1.75172435779054        1.08547660400689       -2.87230769979518
H            1.81753882837424        1.42700158694352       -1.13586590892455
H            1.53126042528114        2.74687997524212       -2.27171450625932
H           -0.12401379817214       -3.10679598959382        1.25953218079663
O            1.32578514313209       -2.23996862317263        0.11660928517888
C            2.17893070580136       -2.69218231703399        0.97283583912626
O            1.96887042730841       -3.03725283687809        2.12738280255234
C            3.59626163205018       -2.77686755512670        0.44765596493184
O            4.39704864010509       -3.32889408622354        1.47237018833725
H            3.80234918144203       -3.45987949278983        2.22698194414405
H            3.65775624144363       -3.40316067504907       -0.44610447221553
C            4.12423723255243       -1.37391713468569        0.08547422611107
N            3.32786384277418       -0.88254182510210       -1.00723597962838
C            3.77862552263456       -0.54309003458513       -2.23561371656052
O            3.04013822230595       -0.49318816393664       -3.20406919049530
C            5.21152038644332       -0.18033259062602       -2.35689211020303
C            5.87225727026169        0.61138568556923       -1.42373542368442
C            7.19293615200408        0.97547460699050       -1.62511398699117
C            7.86489652346024        0.55362550616953       -2.76111605675514
C            7.20850558596783       -0.21806752623246       -3.70798653774304
C            5.88628794329159       -0.57133232356925       -3.50990687642485
H            5.35750388065600       -1.17546348882407       -4.24258616876053
H            7.73236475967323       -0.55228396824811       -4.59944985700732
H            8.90447145671104        0.82571597667589       -2.91557552925239
H            7.70509948804441        1.59539189759124       -0.89799986712694
H            5.34564581585576        0.96451592576456       -0.54663645807182
H            2.35339753289687       -1.14053273862710       -0.93113157187361
C            4.05670103730175       -0.49941156575299        1.30527357521975
C            3.01325599185715        0.38946456374953        1.51553814951168
C            2.94130305973714        1.12456336802589        2.68681774165292
C            3.91410621449976        0.97451323340970        3.66172597753973
C            4.95767312171602        0.08422672161937        3.46280472684827
C            5.02424457109875       -0.64922030910545        2.29061723950057
H            5.81898034011095       -1.36019010915864        2.14276044502215
H            5.70588027308798       -0.04088946967492        4.23902933161502
H            3.84444506188243        1.55002495280565        4.58872423623816
H            2.11395822934873        1.81837513828911        2.84578951716823
H            2.25063173149991        0.51649604554720        0.75533449643403
H            5.16144844457051       -1.45251333354142       -0.23362722318214
