113
 xtb: 6.7.1 (b9eb0ff)
C           -2.25868379256733       -2.23215757986084       -0.33793787256108
C           -0.95018729969379       -2.37490547155715       -0.56648850086127
C           -0.36044014357898       -2.46356514348279       -1.94841517806091
H           -0.40777569466478       -1.47574512476770       -2.42770922698471
H           -0.94331815289751       -3.16017506749392       -2.56729392696803
H            0.67113106999013       -2.78927399615117       -1.90446383741049
C           -0.00136745083923       -2.26499303792605        0.58812407706302
C           -0.35613770318304       -0.97684069543723        1.34620107577778
H            0.00998393135640       -0.13459557290334        0.74336195317176
H            0.16425344666928       -0.97277574182937        2.29482105340925
C           -1.86888106090022       -0.80984453764805        1.60105271339625
O           -2.12134889447189       -0.84140620177818        3.00036931336002
H           -2.04350597510086        0.07046422236152        3.36646638235460
C           -2.68491729595846       -2.03018728526121        1.09781716897026
C           -4.15073955461026       -1.72343662554814        1.40179510820579
H           -4.54076651348205       -0.90262484929837        0.82323334794041
H           -4.77536087171449       -2.59005349507262        1.25745117820380
H           -4.19444838920480       -1.43864957931280        2.45973411378821
C           -2.35333721441814       -3.28120903507849        1.95383002337609
H           -1.67829079172468       -3.02209502934306        2.76944297956450
H           -1.90048261813711       -4.06242886202021        1.34450530695099
H           -3.26364229443835       -3.67950383035591        2.38582870522987
C           -2.35377497041644        0.54379211940899        1.03332866988290
H           -3.27392296443220        0.80895420763889        1.54999218112163
O           -1.34093130503993        1.50604861548654        1.32385635035701
C           -1.21720347424321        1.96128043318398        2.52625698868027
O           -1.82746166577103        1.60119539352971        3.52572831694103
C           -0.19071151975697        3.03026330903642        2.60204042929911
C            0.00973257089767        3.67808567149568        3.81756053716200
C            0.95326959043975        4.68228069406199        3.92989320639744
C            1.70797200744318        5.04602513650213        2.82443056326160
C            1.51855135732606        4.40437330295969        1.60992213761552
C            0.57420211302453        3.39921172223665        1.49926923963573
H            0.41544689646940        2.88794897898707        0.55137837020645
H            2.11522856899714        4.69135138684113        0.74296205334349
H            2.44860609676975        5.83816319311137        2.90429840887986
H            1.10264994999063        5.19363150409752        4.87147745930136
H           -0.59504104592517        3.38386232181970        4.66364758816591
C           -2.55224030664634        0.69825066648892       -0.50843814517051
H           -1.86210803382133        0.01077287525062       -0.99201569191608
C           -2.08009808778880        2.10778460597209       -0.89829677064869
C           -2.56087306603147        3.26505719506277       -0.02038654090459
H           -3.19456390217931        3.01000351522532        0.82331186274847
H           -1.75050520587037        3.92696741842534        0.29966597969508
O           -3.32499256804162        3.84234155500826       -1.10397959412021
C           -2.75528658335185        2.89330510859034       -2.03880038559242
C           -3.82382028453552        2.25709609188161       -2.89302304294599
H           -3.62474749921777        2.39653932745590       -3.95176510288988
H           -4.78011363024269        2.74693301350495       -2.66478242764116
C           -3.97542429682485        0.76950062491205       -2.61971852701755
O           -5.20625989613148        0.41728247481383       -3.21355633279641
H           -5.59905010489727       -0.33883676152171       -2.71565856608464
H           -3.15374723245503        0.23128119911201       -3.09041701850943
C           -3.94505284625750        0.40002325143526       -1.10434253855562
C           -4.30780626828250       -1.07230571582859       -1.24532844318245
O           -5.45841382553858       -1.37936301512576       -1.44620754391133
C           -3.16088118696653       -2.00403279743746       -1.52180857400207
H           -2.55683056106394       -1.42434535844618       -2.23051230442553
O           -3.44625535414840       -3.13760656595272       -2.32023802484390
C           -4.27614475703579       -4.08476537743813       -2.05768168471233
O           -4.44644347758019       -4.95371167605414       -2.90446393907743
C           -4.99960781124771       -4.18157721298483       -0.73105715414836
H           -5.58802203446897       -5.08885009159150       -0.70818203604524
H           -5.62983511828392       -3.32191967855569       -0.58550147961686
H           -4.26363074506019       -4.23073096274728        0.09009496831549
C           -5.07663683801766        1.16303885528552       -0.41674256547501
H           -5.06451980737681        0.99603777064245        0.66647191348130
H           -4.98942837131221        2.23744751194172       -0.58599142064582
H           -6.02493375992019        0.80923542161550       -0.80832081148465
H           -2.00414383364722        3.38349646997901       -2.65897571324324
O           -0.67366514284935        2.17536997092395       -1.04157293059334
C           -0.14674287760668        1.44910952711799       -1.97290442658279
O           -0.71794953067748        0.66320469469838       -2.70671783632426
C            1.34258098220565        1.70166711495959       -2.06679637144121
H            1.75253620284217        1.08596804564585       -2.87344568531774
H            1.81897840706549        1.43411584142636       -1.13807606739585
H            1.53026564130637        2.74911507355647       -2.27898441082375
H           -0.12233646591831       -3.10892493595085        1.25973452248867
O            1.33342852171681       -2.24265973503768        0.12308262155090
C            2.18619061005298       -2.68536624607883        0.98241563036221
O            1.97674526063833       -3.02471015143117        2.13974922370548
C            3.60418156241932       -2.76717295245029        0.45895672920779
O            4.40699424243576       -3.31081614466679        1.48841199872353
H            3.80494387456228       -3.45409833885277        2.23133638370447
H            3.66082936116412       -3.40130246911416       -0.44210095692541
C            4.12770753089701       -1.36390361392040        0.09108246298043
N            3.32753551813197       -0.87697907835214       -1.00055835665785
C            3.77341955992696       -0.54777429940402       -2.23377923364956
O            3.02899597833961       -0.50412715036876       -3.19829856738402
C            5.20638325803390       -0.18825587030041       -2.36343287045787
C            5.87117230445701        0.60894880361280       -1.43777308145064
C            7.19158131368299        0.97010065734472       -1.64579525523090
C            7.85919827499052        0.53996854850063       -2.78126131493785
C            7.19869144582785       -0.23710275013842       -3.72080523948117
C            5.87674017224569       -0.58771719518480       -3.51601416002886
H            5.35386632705093       -1.18135788819735       -4.24277963519512
H            7.72856663698982       -0.55950044919938       -4.60309547263359
H            8.90273607805530        0.82119491943535       -2.92297174031702
H            7.70562670170298        1.59503369319656       -0.90566472678604
H            5.34624258714442        0.96566867055911       -0.55089821731780
H            2.35322799118081       -1.13832117931474       -0.92760330961634
C            4.06046597515135       -0.48618807012028        1.30843625205770
C            3.01496839504708        0.40026718499183        1.51862907945946
C            2.94272347859875        1.13647698308492        2.68918297113065
C            3.91690789686822        0.99001571052593        3.66324860912495
C            4.96279161835910        0.10258808642461        3.46404111170602
C            5.02987519151397       -0.63191621922962        2.29258059646576
H            5.82113498353516       -1.35456079376927        2.14325069317015
H            5.70771270158686       -0.03475859201840        4.23917754941764
H            3.84508629609440        1.55469631103443        4.58904258735293
H            2.11387413787734        1.82120472459218        2.84662091275748
H            2.25083112987753        0.51895154398220        0.75638802186969
H            5.16228415286123       -1.44917061525461       -0.23261542332588
