24
 xtb: 6.7.1 (b9eb0ff)
C           -3.27224054361411       -1.05528020094118        0.00767971381070
N           -2.27559458545768       -0.01975224468672       -0.00286651017807
C           -0.91313001892757       -0.20498252533752        0.00999237122556
C           -0.37077123628481        1.07315511753806        0.00452031525722
N           -1.34770178632844        2.00581407417657       -0.01311187516512
C           -2.46626112214069        1.31248213108301       -0.01489098114260
H           -3.44188296575506        1.76090109937045       -0.01595237645235
N            0.97178989972880        1.28310832369303        0.00097494908381
C            1.82857358110549        0.20333970171725       -0.00779800485999
O            3.03272144386807        0.34131456058768       -0.02470383940110
N            1.25304510374746       -1.06243752829873       -0.00966622473381
C           -0.10558804224947       -1.38602631909241        0.01065949594267
O           -0.49976290202425       -2.53891030000702        0.02518681012543
C            2.20241963617653       -2.16321206299332       -0.02365349896691
H            1.63215663159124       -3.08957610400433        0.01420589743687
H            2.81588220655754       -2.11708355745623       -0.90863065319978
H            2.85354780325860       -2.09290399056503        0.86074886130244
C            1.50579711918060        2.62672993172300        0.03490788435434
H            0.76509163838494        3.29820602567988       -0.40782982627342
H            1.74945537795515        2.92623147972167        1.05010851665766
H            2.44313757746014        2.62840322761987       -0.57418963734889
H           -2.75518217159850       -2.01944456456095       -0.03348420721911
H           -3.92522508409748       -0.96136583671693       -0.86235497508165
H           -3.87020328145775       -1.00556002750915        0.91268180485945
