      -----------------------------------------------------------      
     |                   =====================                   |     
     |                           x T B                           |     
     |                   =====================                   |     
     |                         S. Grimme                         |     
     |          Mulliken Center for Theoretical Chemistry        |     
     |                    University of Bonn                     |     
      -----------------------------------------------------------      

   * xtb version 6.7.1 (b9eb0ff) compiled by 'polt@simurgh' on 2026-06-25

   xtb is free software: you can redistribute it and/or modify it under
   the terms of the GNU Lesser General Public License as published by
   the Free Software Foundation, either version 3 of the License, or
   (at your option) any later version.
   
   xtb is distributed in the hope that it will be useful,
   but WITHOUT ANY WARRANTY; without even the implied warranty of
   MERCHANTABILITY or FITNESS FOR A PARTICULAR PURPOSE.  See the
   GNU Lesser General Public License for more details.
   
   Cite this work as:
   * C. Bannwarth, E. Caldeweyher, S. Ehlert, A. Hansen, P. Pracht,
     J. Seibert, S. Spicher, S. Grimme, WIREs Comput. Mol. Sci., 2020, 11,
     e01493. DOI: 10.1002/wcms.1493
   
   for GFN2-xTB:
   * C. Bannwarth, S. Ehlert and S. Grimme., J. Chem. Theory Comput., 2019,
     15, 1652-1671. DOI: 10.1021/acs.jctc.8b01176
   for GFN1-xTB:
   * S. Grimme, C. Bannwarth, P. Shushkov, J. Chem. Theory Comput., 2017,
     13, 1989-2009. DOI: 10.1021/acs.jctc.7b00118
   for GFN0-xTB:
   * P. Pracht, E. Caldeweyher, S. Ehlert, S. Grimme, ChemRxiv, 2019, preprint.
     DOI: 10.26434/chemrxiv.8326202.v1
   for GFN-FF:
   * S. Spicher and S. Grimme, Angew. Chem. Int. Ed., 2020, 59, 15665-15673.
     DOI: 10.1002/anie.202004239
   
   for ALPB and GBSA implicit solvation:
   * S. Ehlert, M. Stahn, S. Spicher, S. Grimme, J. Chem. Theory Comput.,
     2021, 17, 4250-4261. DOI: 10.1021/acs.jctc.1c00471
   
   for ddCOSMO and CPCM-X implicit solvation:
   * M. Stahn, S. Ehlert, S. Grimme, J. Phys. Chem. A,
     2023, XX, XXXX-XXXX. DOI: 10.1021/acs.jpca.3c04382
   
   for DFT-D4:
   * E. Caldeweyher, C. Bannwarth and S. Grimme, J. Chem. Phys., 2017,
     147, 034112. DOI: 10.1063/1.4993215
   * E. Caldeweyher, S. Ehlert, A. Hansen, H. Neugebauer, S. Spicher,
     C. Bannwarth and S. Grimme, J. Chem. Phys., 2019, 150, 154122.
     DOI: 10.1063/1.5090222
   * E. Caldeweyher, J.-M. Mewes, S. Ehlert and S. Grimme, Phys. Chem. Chem. Phys.
     2020, 22, 8499-8512. DOI: 10.1039/D0CP00502A
   
   for sTDA-xTB:
   * S. Grimme and C. Bannwarth, J. Chem. Phys., 2016, 145, 054103.
     DOI: 10.1063/1.4959605
   
   in the mass-spec context:
   * V. Asgeirsson, C. Bauer and S. Grimme, Chem. Sci., 2017, 8, 4879.
     DOI: 10.1039/c7sc00601b
   * J. Koopman and S. Grimme, ACS Omega 2019, 4, 12, 15120-15133.
     DOI: 10.1021/acsomega.9b02011
   
   for metadynamics refer to:
   * S. Grimme, J. Chem. Theory Comput., 2019, 155, 2847-2862
     DOI: 10.1021/acs.jctc.9b00143
   
   for SPH calculations refer to:
   * S. Spicher and S. Grimme, J. Chem. Theory Comput., 2021, 17, 1701-1714
     DOI: 10.1021/acs.jctc.0c01306
   
   for ONIOM refer to:
   * C. Plett, A. Katbashev, S. Ehlert, S. Grimme, M. Bursch,
     Phys. Chem. Chem. Phys., 2023, 25, 17860-17868. DOI: 10.1039/D3CP02178E
   
   for DIPRO refer to:
   * J. Kohn, N. Gildemeister, S. Grimme, D. Fazzi, A. Hansen,
     J. Chem. Phys. 159, 144106 (2023). DOI: 10.1063/5.0167484
   
   for PTB refer to:
   * S. Grimme, M. Mueller, A. Hansen, J. Chem. Phys., 2023, 158, 124111.
     DOI: 10.1063/5.0137838
   
   for O1NumHess refer to:
   * B. Wang, S. Luo, Z. Wang, W. Liu,
     J. Chem. Theory Comput. 21, 10893-10909.
     DOI: 10.1021/acs.jctc.5c01354
   
   with help from (in alphabetical order)
   P. Atkinson, C. Bannwarth, F. Bohle, G. Brandenburg, E. Caldeweyher
   M. Checinski, S. Dohm, S. Ehlert, S. Ehrlich, I. Gerasimov, C. Hölzer
   A. Katbashev, J. Kohn, J. Koopman, C. Lavigne, S. Lehtola, F. März, M. Müller,
   F. Musil, H. Neugebauer, J. Pisarek, C. Plett, P. Pracht, F. Pultar,
   J. Seibert, L. M. Seidler, P. Shushkov, S. Spicher, M. Stahn, M. Steiner, T. Strunk,
   J. Stückrath, T. Rose, and J. Unsleber
   
 * started run on 2026/06/25 at 16:29:05.516     
   ID    Z sym.   atoms
    1    6 C      1, 3, 4, 6, 9, 12, 14, 18
    2    7 N      2, 5, 8, 11
    3    1 H      7, 15-17, 19-24
    4    8 O      10, 13

           -------------------------------------------------
          |                Calculation Setup                |
           -------------------------------------------------

          program call               : /home/polt/xtb/build/xtb 04-caffeine.xyz --ohess --o1nh -1
          coordinate file            : 04-caffeine.xyz
          omp threads                :                    28

########################################################################
[WARNING] Please study the warnings concerning your input carefully
-2- prog_main: Step size for O1NumHess can be chosen to be much smaller (recommended: 1.0e-6)
-1- prog_main: O1NumHess does not support calculation of IR or Raman activities
########################################################################

           -------------------------------------------------
          |                 G F N 2 - x T B                 |
           -------------------------------------------------

        Reference                      10.1021/acs.jctc.8b01176
      * Hamiltonian:
        H0-scaling (s, p, d)           1.850000    2.230000    2.230000
        zeta-weighting                 0.500000
      * Dispersion:
        s8                             2.700000
        a1                             0.520000
        a2                             5.000000
        s9                             5.000000
      * Repulsion:
        kExp                           1.500000    1.000000
        rExp                           1.000000
      * Coulomb:
        alpha                          2.000000
        third order                    shell-resolved
        anisotropic                    true
        a3                             3.000000
        a5                             4.000000
        cn-shift                       1.200000
        cn-exp                         4.000000
        max-rad                        5.000000


          ...................................................
          :                      SETUP                      :
          :.................................................:
          :  # basis functions                  66          :
          :  # atomic orbitals                  66          :
          :  # shells                           38          :
          :  # electrons                        74          :
          :  max. iterations                   250          :
          :  Hamiltonian                  GFN2-xTB          :
          :  restarted?                      false          :
          :  GBSA solvation                  false          :
          :  PC potential                    false          :
          :  electronic temp.          300.0000000     K    :
          :  accuracy                    1.0000000          :
          :  -> integral cutoff          0.2500000E+02      :
          :  -> integral neglect         0.1000000E-07      :
          :  -> SCF convergence          0.1000000E-05 Eh   :
          :  -> wf. convergence          0.1000000E-03 e    :
          :  Broyden damping             0.4000000          :
          :  net charge                          0          :
          :  unpaired electrons                  0          :
          ...................................................

 iter      E             dE          RMSdq      gap      omega  full diag
   1    -42.5168117 -0.425168E+02  0.431E+00    3.42       0.0  T
   2    -42.6583023 -0.141491E+00  0.256E+00    3.39       1.0  T
   3    -42.6654610 -0.715868E-02  0.141E+00    3.44       1.0  T
   4    -42.6655018 -0.407881E-04  0.243E-01    3.36       1.0  T
   5    -42.6664463 -0.944525E-03  0.877E-02    3.39       1.0  T
   6    -42.6664802 -0.339112E-04  0.478E-02    3.40       1.0  T
   7    -42.6664940 -0.137664E-04  0.212E-02    3.40       1.0  T
   8    -42.6664962 -0.217712E-05  0.601E-03    3.39       3.4  T
   9    -42.6664963 -0.108717E-06  0.288E-03    3.40       7.1  T
  10    -42.6664963 -0.471233E-07  0.102E-03    3.40      20.1  T
  11    -42.6664963 -0.109424E-07  0.426E-04    3.40      47.9  T
  12    -42.6664963 -0.446100E-09  0.118E-04    3.40     173.3  T

   *** convergence criteria satisfied after 12 iterations ***

         #    Occupation            Energy/Eh            Energy/eV
      -------------------------------------------------------------
         1        2.0000           -0.7202039             -19.5977
       ...           ...                  ...                  ...
        31        2.0000           -0.4612430             -12.5511
        32        2.0000           -0.4374889             -11.9047
        33        2.0000           -0.4275205             -11.6334
        34        2.0000           -0.4194495             -11.4138
        35        2.0000           -0.4136433             -11.2558
        36        2.0000           -0.4056734             -11.0389
        37        2.0000           -0.3886117             -10.5747 (HOMO)
        38                         -0.2638400              -7.1795 (LUMO)
        39                         -0.2191698              -5.9639
        40                         -0.2059792              -5.6050
        41                         -0.1219564              -3.3186
        42                         -0.0446711              -1.2156
       ...                                ...                  ...
        66                          0.6919742              18.8296
      -------------------------------------------------------------
                  HL-Gap            0.1247717 Eh            3.3952 eV
             Fermi-level           -0.3262258 Eh           -8.8771 eV

 SCC (total)                   0 d,  0 h,  0 min,  0.039 sec
 SCC setup                      ...        0 min,  0.000 sec (  1.026%)
 Dispersion                     ...        0 min,  0.001 sec (  1.363%)
 classical contributions        ...        0 min,  0.000 sec (  0.546%)
 integral evaluation            ...        0 min,  0.001 sec (  3.282%)
 iterations                     ...        0 min,  0.032 sec ( 83.073%)
 molecular gradient             ...        0 min,  0.004 sec (  9.386%)
 printout                       ...        0 min,  0.000 sec (  1.230%)

         :::::::::::::::::::::::::::::::::::::::::::::::::::::
         ::                     SUMMARY                     ::
         :::::::::::::::::::::::::::::::::::::::::::::::::::::
         :: total energy             -42.154421982330 Eh    ::
         :: gradient norm              0.000041962642 Eh/a0 ::
         :: HOMO-LUMO gap              3.395211674257 eV    ::
         ::.................................................::
         :: SCC energy               -42.666396809915 Eh    ::
         :: -> isotropic ES            0.083657001726 Eh    ::
         :: -> anisotropic ES          0.001624464669 Eh    ::
         :: -> anisotropic XC          0.013408637722 Eh    ::
         :: -> dispersion             -0.023303072107 Eh    ::
         :: repulsion energy           0.511974827585 Eh    ::
         :: add. restraining           0.000000000000 Eh    ::
         :: total charge               0.000000000000 e     ::
         :::::::::::::::::::::::::::::::::::::::::::::::::::::

      ----------------------------------------------------------- 
     |                   =====================                   |
     |                        A N C O P T                        |
     |                   =====================                   |
     |               Approximate Normal Coordinate               |
     |                Rational Function Optimizer                |
      ----------------------------------------------------------- 

          ...................................................
          :                      SETUP                      :
          :.................................................:
          :   optimization level            normal          :
          :   max. optcycles                   200          :
          :   ANC micro-cycles                  20          :
          :   degrees of freedom                66          :
          :.................................................:
          :   RF solver                   davidson          :
          :   write xtbopt.log                true          :
          :   linear?                        false          :
          :   energy convergence         0.5000000E-05 Eh   :
          :   grad. convergence          0.1000000E-02 Eh/α :
          :   maximum RF displ.          1.0000000          :
          :   Hlow (freq-cutoff)         0.1000000E-01      :
          :   Hmax (freq-cutoff)         5.0000000          :
          :   S6 in model hess.         20.0000000          :
          ...................................................

generating ANC from exact Hessian ...
Using Lindh-Hessian (1995)
 Shifting diagonal of input Hessian by    6.7748666295722989E-003
 Lowest  eigenvalues of input Hessian
    0.000000    0.000000    0.000000    0.000000    0.000000    0.000000
    0.010000    0.010986    0.012569    0.015664    0.016497    0.018600
    0.019490    0.020895    0.028360    0.030129    0.043574    0.051139
 Highest eigenvalues
    2.033222    2.112909    2.156661    2.199747    2.425581    2.517726


........................................................................
.............................. CYCLE    1 ..............................
........................................................................

 iter      E             dE          RMSdq      gap      omega  full diag
   1    -42.6664963 -0.426665E+02  0.383E-05    3.40       0.0  T
   2    -42.6664963 -0.263611E-11  0.217E-05    3.40     941.1  T
   3    -42.6664963  0.511591E-12  0.103E-05    3.40    1985.4  T
     SCC iter.                  ...        0 min,  0.011 sec
     gradient                   ...        0 min,  0.004 sec
 * total energy  :   -42.1544220 Eh     change       -0.1375753E-09 Eh
   gradient norm :     0.0000436 Eh/α   predicted     0.0000000E+00 (-100.00%)
   displ. norm   :     0.0000655 α      lambda        0.0000000E+00
   maximum displ.:     0.0000303 α      in ANC's #6, #65, #64, ...

   *** GEOMETRY OPTIMIZATION CONVERGED AFTER 1 ITERATIONS ***

------------------------------------------------------------------------
 total energy gain   :        -0.0000000 Eh       -0.0000 kcal/mol
 total RMSD          :         0.0000000 a0        0.0000 Å
 total power (kW/mol):        -0.0000004 (step)   -0.0000 (real)
------------------------------------------------------------------------

 ANCopt (total)                0 d,  0 h,  0 min,  0.025 sec
 optimizer setup                ...        0 min,  0.000 sec (  0.376%)
 model hessian                  ...        0 min,  0.005 sec ( 21.977%)
 ANC generation                 ...        0 min,  0.001 sec (  5.559%)
 coordinate transformation      ...        0 min,  0.000 sec (  0.071%)
 single point calculation       ...        0 min,  0.018 sec ( 70.486%)
 optimization log               ...        0 min,  0.000 sec (  0.611%)
 hessian update                 ...        0 min,  0.000 sec (  0.010%)
 rational function              ...        0 min,  0.000 sec (  0.236%)

================
 final structure:
================
24
 xtb: 6.7.1 (b9eb0ff)
C           -3.26680631450000       -1.06123833110000        0.00197925860000
N           -2.27660038980000       -0.01951729360000       -0.00132082180000
C           -0.91345908580000       -0.20198785220000        0.00367471350000
C           -0.37247010060000        1.07622024670000        0.00175691020000
N           -1.35265862650000        2.00667556450000       -0.00519337500000
C           -2.47008956860000        1.31114331730000       -0.00659112610000
H           -3.44345284480000        1.75985891520000       -0.01153924560000
N            0.97016200550000        1.28333658020000       -0.00087938280000
C            1.82571443770000        0.20283216830000       -0.00071686530000
O            3.02788762810000        0.34749120120000       -0.00518120780000
N            1.25150271140000       -1.06369500510000       -0.00089222630000
C           -0.10650182020000       -1.38420394910000        0.00299916890000
O           -0.50159805560000       -2.53665342170000        0.00440999550000
C            2.20183578200000       -2.16381230930000       -0.00371859880000
H            1.63236750790000       -3.09006224880000        0.00974444480000
H            2.82443151080000       -2.11197871860000       -0.89641934990000
H            2.84507815080000       -2.09778591570000        0.87314803710000
C            1.52163657070000        2.62115694860000        0.00938694540000
H            0.73061843520000        3.30885494840000       -0.27711449950000
H            1.88868885080000        2.87141886740000        1.00608873890000
H            2.35511154340000        2.66878179850000       -0.69027639200000
H           -2.75104047670000       -2.02026346400000       -0.01765763900000
H           -3.91090988480000       -0.97539352590000       -0.87447684320000
H           -3.88168114380000       -0.99844450540000        0.90137642580000

 Bond Distances (Angstroems)
 ---------------------------
C1-N2=1.4373         C1-H22=1.0891        C1-H23=1.0911        C1-H24=1.0913        N2-C1=1.4373         N2-C3=1.3753         
N2-C6=1.3447         C3-N2=1.3753         C3-C4=1.3880         C3-C12=1.4314        C4-C3=1.3880         C4-N5=1.3515         
C4-N8=1.3585         N5-C4=1.3515         N5-C6=1.3162         C6-N2=1.3447         C6-N5=1.3162         C6-H7=1.0718         
H7-C6=1.0718         N8-C4=1.3585         N8-C9=1.3782         N8-C18=1.4471        C9-N8=1.3782         C9-O10=1.2109        
C9-N11=1.3906        O10-C9=1.2109        N11-C9=1.3906        N11-C12=1.3953       N11-C14=1.4538       C12-C3=1.4314        
C12-N11=1.3953       C12-O13=1.2183       O13-C12=1.2183       C14-N11=1.4538       C14-H15=1.0874       C14-H16=1.0896       
C14-H17=1.0895       H15-C14=1.0874       H16-C14=1.0896       H17-C14=1.0895       C18-N8=1.4471        C18-H19=1.0866       
C18-H20=1.0912       C18-H21=1.0893       H19-C18=1.0866       H20-C18=1.0912       H21-C18=1.0893       H22-C1=1.0891        
H23-C1=1.0911        H24-C1=1.0913        
 C  H  Rav=1.0877 sigma=0.0055  Rmin=1.0718  Rmax=1.0913    10
 C  C  Rav=1.4097 sigma=0.0217  Rmin=1.3880  Rmax=1.4314     2
 N  C  Rav=1.3862 sigma=0.0424  Rmin=1.3162  Rmax=1.4538    11
 O  C  Rav=1.2146 sigma=0.0037  Rmin=1.2109  Rmax=1.2183     2

 selected bond angles (degree)
 --------------------
H22-C1-N2=108.18               H23-C1-N2=110.36               H23-C1-H22=109.53              H24-C1-N2=110.39               
H24-C1-H22=109.41              H24-C1-H23=108.96              C3-N2-C1=125.92                C6-N2-C1=128.18                
C6-N2-C3=105.90                C4-C3-N2=105.32                C12-C3-N2=131.94               C12-C3-C4=122.74               
N5-C4-C3=110.57                N8-C4-C3=121.71                N8-C4-N5=127.72                C6-N5-C4=104.59                
N5-C6-N2=113.63                H7-C6-N2=123.02                H7-C6-N5=123.35                C9-N8-C4=119.60                
C18-N8-C4=121.17               C18-N8-C9=119.22               O10-C9-N8=121.51               N11-C9-N8=117.24               
N11-C9-O10=121.25              

 selected dihedral angles (degree)
 ---------------------------------
C3-N2-C1-H22=358.52           C3-N2-C1-H23=238.70           C3-N2-C1-H24=118.20           C6-N2-C1-H22=178.69           
C6-N2-C1-H23= 58.87           C6-N2-C1-H24=298.37           C4-C3-N2-C1=180.17            C4-C3-N2-C6=  0.04            
C12-C3-N2-C1=  0.54           C12-C3-N2-C6=180.40           N5-C4-C3-N2=359.95            N5-C4-C3-C12=179.63           
N8-C4-C3-N2=180.32            N8-C4-C3-C12=  0.00           C6-N5-C4-C3=  0.04            C6-N5-C4-N8=179.65            
N5-C6-N2-C1=179.84            N5-C6-N2-C3=  0.00            H7-C6-N2-C1=359.84            H7-C6-N2-C3=179.98            
N2-C6-N5-C4=  0.00            H7-C6-N5-C4=179.99            C9-N8-C4-C3=359.95            C9-N8-C4-N5=180.39            
C18-N8-C4-C3=180.57           C18-N8-C4-N5=  1.00           O10-C9-N8-C4=179.88           O10-C9-N8-C18=359.28          
N11-C9-N8-C4=  0.14           N11-C9-N8-C18=179.54          
           -------------------------------------------------
          |                Final Singlepoint                |
           -------------------------------------------------

          ...................................................
          :                      SETUP                      :
          :.................................................:
          :  # basis functions                  66          :
          :  # atomic orbitals                  66          :
          :  # shells                           38          :
          :  # electrons                        74          :
          :  max. iterations                   250          :
          :  Hamiltonian                  GFN2-xTB          :
          :  restarted?                      false          :
          :  GBSA solvation                  false          :
          :  PC potential                    false          :
          :  electronic temp.          300.0000000     K    :
          :  accuracy                    1.0000000          :
          :  -> integral cutoff          0.2500000E+02      :
          :  -> integral neglect         0.1000000E-07      :
          :  -> SCF convergence          0.1000000E-05 Eh   :
          :  -> wf. convergence          0.1000000E-03 e    :
          :  Broyden damping             0.4000000          :
          :  net charge                          0          :
          :  unpaired electrons                  0          :
          ...................................................

 iter      E             dE          RMSdq      gap      omega  full diag
   1    -42.6664963 -0.426665E+02  0.324E-06    3.40       0.0  T
   2    -42.6664963  0.710543E-14  0.193E-06    3.40   10597.9  T
   3    -42.6664963 -0.710543E-14  0.125E-06    3.40   16344.0  T

   *** convergence criteria satisfied after 3 iterations ***

         #    Occupation            Energy/Eh            Energy/eV
      -------------------------------------------------------------
         1        2.0000           -0.7202029             -19.5977
       ...           ...                  ...                  ...
        31        2.0000           -0.4612425             -12.5510
        32        2.0000           -0.4374877             -11.9046
        33        2.0000           -0.4275206             -11.6334
        34        2.0000           -0.4194493             -11.4138
        35        2.0000           -0.4136432             -11.2558
        36        2.0000           -0.4056723             -11.0389
        37        2.0000           -0.3886109             -10.5746 (HOMO)
        38                         -0.2638388              -7.1794 (LUMO)
        39                         -0.2191690              -5.9639
        40                         -0.2059777              -5.6049
        41                         -0.1219551              -3.3186
        42                         -0.0446704              -1.2155
       ...                                ...                  ...
        66                          0.6919751              18.8296
      -------------------------------------------------------------
                  HL-Gap            0.1247721 Eh            3.3952 eV
             Fermi-level           -0.3262248 Eh           -8.8770 eV

 SCC (total)                   0 d,  0 h,  0 min,  0.015 sec
 SCC setup                      ...        0 min,  0.000 sec (  1.434%)
 Dispersion                     ...        0 min,  0.000 sec (  2.431%)
 classical contributions        ...        0 min,  0.000 sec (  0.627%)
 integral evaluation            ...        0 min,  0.001 sec (  7.874%)
 iterations                     ...        0 min,  0.009 sec ( 57.207%)
 molecular gradient             ...        0 min,  0.004 sec ( 27.354%)
 printout                       ...        0 min,  0.000 sec (  2.842%)

         :::::::::::::::::::::::::::::::::::::::::::::::::::::
         ::                     SUMMARY                     ::
         :::::::::::::::::::::::::::::::::::::::::::::::::::::
         :: total energy             -42.154421982469 Eh    ::
         :: gradient norm              0.000043590804 Eh/a0 ::
         :: HOMO-LUMO gap              3.395222902574 eV    ::
         ::.................................................::
         :: SCC energy               -42.666396810054 Eh    ::
         :: -> isotropic ES            0.083660081569 Eh    ::
         :: -> anisotropic ES          0.001624720234 Eh    ::
         :: -> anisotropic XC          0.013408680591 Eh    ::
         :: -> dispersion             -0.023303078074 Eh    ::
         :: repulsion energy           0.511974827585 Eh    ::
         :: add. restraining           0.000000000000 Eh    ::
         :: total charge               0.000000000000 e     ::
         :::::::::::::::::::::::::::::::::::::::::::::::::::::

           ------------------------------------------------- 
          |                Numerical Hessian                |
           ------------------------------------------------- 
step length          :   0.00500
SCC accuracy         :   0.30000
Hessian scale factor :   1.00000
frozen atoms in %    :   0.00000    0
RMS gradient         :   0.00004
PROF gen_displdir: wall=     0.037 s, evals=2214, avg_nnb=   41.60, max_nnb=60
PROF gen_displdir: extract=     0.013 s, orth=     0.195 s, proj=     0.170 s, diag=     0.110 s, sign=     0.000 s
========================================================
PROF odlrhessian: natoms=24, ndispl=62
PROF odlrhessian: setup        =      0.001 s
PROF odlrhessian: ref_singlept =      0.013 s
PROF odlrhessian: grad_evals   =      0.195 s
PROF odlrhessian: dirgen       =      0.037 s
PROF odlrhessian: local_solve  =      0.026 s
PROF odlrhessian: neg_mode     =      0.068 s
PROF odlrhessian: TOTAL        =      0.340 s
========================================================
Error norm for predicted gradient (ODLR Hessian):   1.9173E-02

writing file <hessian>, containing the non-mass-weighted Hessian matrix in atomic units (Eₕ/Bohr²).

 projected vibrational frequencies (cm⁻¹)
eigval :       -0.00    -0.00    -0.00     0.00     0.00     0.00
eigval :       36.66    62.93    83.81    94.19   115.57   135.77
eigval :      152.91   204.87   235.72   261.99   283.94   330.33
eigval :      358.66   384.73   396.43   430.27   464.09   576.45
eigval :      580.05   637.07   648.29   669.47   689.83   728.55
eigval :      792.86   812.14   927.45   989.51  1034.55  1058.16
eigval :     1075.65  1106.71  1109.07  1109.68  1139.36  1203.70
eigval :     1229.26  1248.38  1279.29  1319.84  1359.06  1382.31
eigval :     1385.96  1400.92  1433.89  1438.98  1441.66  1452.80
eigval :     1453.85  1466.21  1469.47  1470.82  1523.86  1577.87
eigval :     1713.51  1727.75  2986.34  2989.59  3003.57  3004.65
eigval :     3016.77  3024.28  3039.18  3042.80  3050.42  3178.79
           -------------------------------------------------
          |                Property Printout                |
           -------------------------------------------------

    * Orbital Energies and Occupations

         #    Occupation            Energy/Eh            Energy/eV
      -------------------------------------------------------------
         1        2.0000           -0.7202029             -19.5977
       ...           ...                  ...                  ...
        25        2.0000           -0.5061702             -13.7736
        26        2.0000           -0.5047336             -13.7345
        27        2.0000           -0.4996920             -13.5973
        28        2.0000           -0.4950333             -13.4705
        29        2.0000           -0.4821820             -13.1208
        30        2.0000           -0.4749975             -12.9253
        31        2.0000           -0.4612425             -12.5510
        32        2.0000           -0.4374877             -11.9046
        33        2.0000           -0.4275206             -11.6334
        34        2.0000           -0.4194493             -11.4138
        35        2.0000           -0.4136432             -11.2558
        36        2.0000           -0.4056723             -11.0389
        37        2.0000           -0.3886109             -10.5746 (HOMO)
        38                         -0.2638388              -7.1794 (LUMO)
        39                         -0.2191690              -5.9639
        40                         -0.2059777              -5.6049
        41                         -0.1219551              -3.3186
        42                         -0.0446704              -1.2155
        43                          0.0017623               0.0480
        44                          0.0216403               0.5889
        45                          0.0847857               2.3071
        46                          0.0959789               2.6117
        47                          0.1194835               3.2513
        48                          0.1303821               3.5479
       ...                                ...                  ...
        66                          0.6919751              18.8296
      -------------------------------------------------------------
                  HL-Gap            0.1247721 Eh            3.3952 eV
             Fermi-level           -0.3262248 Eh           -8.8770 eV

     #   Z          covCN         q      C6AA      α(0)
     1   6          3.689    -0.062    21.896     6.697
     2   7          2.837     0.002    21.226     6.843
     3   6          3.120    -0.039    28.793     8.788
     4   6          3.193     0.123    24.844     8.128
     5   7          1.895    -0.285    28.252     7.880
     6   6          3.202     0.088    25.497     8.227
     7   1          0.926     0.056     2.250     2.346
     8   7          2.741    -0.075    22.705     7.077
     9   6          2.732     0.313    21.685     7.624
    10   8          0.860    -0.437    22.436     6.351
    11   7          2.750    -0.116    23.529     7.204
    12   6          2.765     0.264    22.547     7.776
    13   8          0.858    -0.442    22.540     6.365
    14   6          3.709    -0.041    21.459     6.621
    15   1          0.925     0.090     1.877     2.142
    16   1          0.925     0.069     2.095     2.263
    17   1          0.925     0.070     2.089     2.260
    18   6          3.701    -0.049    21.626     6.650
    19   1          0.925     0.087     1.908     2.160
    20   1          0.924     0.069     2.094     2.263
    21   1          0.925     0.082     1.963     2.191
    22   1          0.925     0.105     1.743     2.064
    23   1          0.924     0.066     2.133     2.284
    24   1          0.924     0.066     2.131     2.283

 Mol. C6AA /au·bohr⁶  :       6698.720727
 Mol. C8AA /au·bohr⁸  :     153310.066083
 Mol. α(0) /au        :        124.488007


Wiberg/Mayer (AO) data.
largest (>0.10) Wiberg bond orders for each atom

 ---------------------------------------------------------------------------
     #   Z sym  total        # sym  WBO       # sym  WBO       # sym  WBO
 ---------------------------------------------------------------------------
     1   6      3.954 --     2      0.996    23      0.973    24      0.973
                            22      0.970
     2   7      3.652 --     6      1.306     3      1.152     1      0.996
                             5      0.108
     3   6      3.937 --     4      1.344     2      1.152    12      1.112
     4   6      3.967 --     3      1.344     5      1.284     8      1.144
     5   7      3.008 --     6      1.479     4      1.284     2      0.108
     6   6      3.956 --     5      1.479     2      1.306     7      0.963
     7   1      0.996 --     6      0.963
     8   7      3.564 --     4      1.144     9      1.123    18      0.981
                            10      0.139
     9   6      3.961 --    10      1.637     8      1.123    11      1.104
    10   8      1.990 --     9      1.637     8      0.139    11      0.131
    11   7      3.547 --     9      1.104    12      1.103    14      0.981
                            13      0.147    10      0.131
    12   6      3.960 --    13      1.634     3      1.112    11      1.103
    13   8      2.000 --    12      1.634    11      0.147
    14   6      3.948 --    11      0.981    17      0.975    16      0.975
                            15      0.973
    15   1      0.991 --    14      0.973
    16   1      0.994 --    14      0.975
    17   1      0.994 --    14      0.975
    18   6      3.948 --     8      0.981    19      0.978    21      0.975
                            20      0.973
    19   1      0.992 --    18      0.978
    20   1      0.994 --    18      0.973
    21   1      0.992 --    18      0.975
    22   1      0.989 --     1      0.970
    23   1      0.995 --     1      0.973
    24   1      0.995 --     1      0.973
 ---------------------------------------------------------------------------

Topologies differ in total number of bonds
Writing topology from bond orders to xtbtopo.mol

molecular dipole:
                 x           y           z       tot (Debye)
 q only:       -1.232       0.554      -0.019
   full:       -1.520       0.378      -0.003       3.982
molecular quadrupole (traceless):
                xx          xy          yy          xz          yz          zz
 q only:        3.520      -0.129      -2.066      -0.057      -0.131      -1.454
  q+dip:        4.281      -0.956      -7.375       0.006      -0.017       3.094
   full:        3.528      -0.717      -8.047       0.004      -0.024       4.519

           -------------------------------------------------
          |                Geometry Summary                 |
           -------------------------------------------------

      molecular mass/u    :      194.1909174
   center of mass at/Å    :        0.0000018      -0.0000007      -0.0000000
  moments of inertia/u·Å² :        0.4700723E+03   0.7069552E+03   0.1167528E+04
rotational constants/cm⁻¹ :        0.3586178E-01   0.2384540E-01   0.1443874E-01

 * 25 selected distances

     #   Z          #   Z                                           value/Å
     1   6          2   7                                         1.4372549
     2   7          3   6                                         1.3753091
     3   6          4   6                                         1.3879802
     4   6          5   7                                         1.3515048
     2   7          6   6                                         1.3446650
     5   7          6   6                                         1.3162140
     6   6          7   1                                         1.0718239 (min)
     4   6          8   7                                         1.3585159
     8   7          9   6                                         1.3782090
     9   6         10   8                                         1.2108538
     9   6         11   7                                         1.3906152
     3   6         12   6                                         1.4313685
    11   7         12   6                                         1.3953200
    12   6         13   8                                         1.2182952
    11   7         14   6                                         1.4537536 (max)
    14   6         15   1                                         1.0873889
    14   6         16   1                                         1.0895995
    14   6         17   1                                         1.0895024
     8   7         18   6                                         1.4470637
    18   6         19   1                                         1.0866101
    18   6         20   1                                         1.0912255
    18   6         21   1                                         1.0892556
     1   6         22   1                                         1.0890957
     1   6         23   1                                         1.0910611
     1   6         24   1                                         1.0912972

 * 4 distinct bonds (by element types)

   Z      Z             #   av. dist./Å        max./Å        min./Å
   1 H    6 C          10     1.0876860     1.0912972     1.0718239
   6 C    6 C           2     1.4096744     1.4313685     1.3879802
   6 C    7 N          11     1.3862205     1.4537536     1.3162140
   6 C    8 O           2     1.2145745     1.2182952     1.2108538

           -------------------------------------------------
          |               Frequency Printout                |
           -------------------------------------------------
 projected vibrational frequencies (cm⁻¹)
eigval :       -0.00    -0.00    -0.00     0.00     0.00     0.00
eigval :       36.66    62.93    83.81    94.19   115.57   135.77
eigval :      152.91   204.87   235.72   261.99   283.94   330.33
eigval :      358.66   384.73   396.43   430.27   464.09   576.45
eigval :      580.05   637.07   648.29   669.47   689.83   728.55
eigval :      792.86   812.14   927.45   989.51  1034.55  1058.16
eigval :     1075.65  1106.71  1109.07  1109.68  1139.36  1203.70
eigval :     1229.26  1248.38  1279.29  1319.84  1359.06  1382.31
eigval :     1385.96  1400.92  1433.89  1438.98  1441.66  1452.80
eigval :     1453.85  1466.21  1469.47  1470.82  1523.86  1577.87
eigval :     1713.51  1727.75  2986.34  2989.59  3003.57  3004.65
eigval :     3016.77  3024.28  3039.18  3042.80  3050.42  3178.79
 reduced masses (amu)
    1:      5.56    2:      5.50    3:      7.86    4:      7.58    5:      5.54    6:      8.07
    7:      1.03    8:      1.20    9:      3.95   10:      3.07   11:      1.22   12:      3.06
   13:      3.85   14:      3.33   15:      5.00   16:      2.70   17:      5.13   18:      3.34
   19:      7.16   20:      7.12   21:      6.02   22:      8.65   23:      7.51   24:      4.96
   25:      5.94   26:      8.65   27:     10.10   28:     11.63   29:     12.08   30:      5.45
   31:      6.36   32:      1.27   33:      3.70   34:      4.20   35:      2.21   36:      2.02
   37:      1.58   38:      1.29   39:      1.28   40:      1.29   41:      1.46   42:      3.92
   43:      4.52   44:      3.84   45:      9.84   46:      8.00   47:      6.42   48:      1.17
   49:      1.16   50:      1.34   51:      4.49   52:      1.06   53:      1.07   54:      3.62
   55:      1.05   56:      1.10   57:      1.25   58:      1.09   59:      7.69   60:     10.75
   61:     12.50   62:     11.98   63:      1.08   64:      1.09   65:      1.07   66:      1.06
   67:      1.04   68:      1.05   69:      1.08   70:      1.08   71:      1.09   72:      1.09
           -------------------------------------------------
          |             Thermodynamic Functions             |
           -------------------------------------------------

Molecule has no symmetry elements
It seems to be the C1 point group
c1  symmetry found (for desy threshold:  0.10E+00) used in thermo

          ...................................................
          :                      SETUP                      :
          :.................................................:
          :  # frequencies                          66      :
          :  # imaginary freq.                       0      :
          :  linear?                             false      :
          :  only rotor calc.                    false      :
          :  symmetry                               c1      :
          :  rotational number                       1      :
          :  scaling factor                  1.0000000      :
          :  rotor cutoff                   50.0000000 cm⁻¹ :
          :  imag. cutoff                  -20.0000000 cm⁻¹ :
          :.................................................:

    mode    ω/cm⁻¹     T·S(HO)/kcal·mol⁻¹    T·S(FR)/kcal·mol⁻¹   T·S(vib)
   ------------------------------------------------------------------------
       1     36.66    -1.61949 ( 22.42%)    -1.14830 ( 77.58%)    -1.25395
       2     62.93    -1.30091 ( 71.50%)    -0.98834 ( 28.50%)    -1.21182
       3     83.81    -1.13285 ( 88.76%)    -0.90345 ( 11.24%)    -1.10706
       4     94.19    -1.06475 ( 92.64%)    -0.86889 (  7.36%)    -1.05034
       5    115.57    -0.94609 ( 96.61%)    -0.80830 (  3.39%)    -0.94142
       6    135.77    -0.85348 ( 98.19%)    -0.76057 (  1.81%)    -0.85180
       7    152.91    -0.78584 ( 98.87%)    -0.72536 (  1.13%)    -0.78515
       8    204.87    -0.62281 ( 99.65%)    -0.63871 (  0.35%)    -0.62286
       9    235.72    -0.54710 ( 99.80%)    -0.59717 (  0.20%)    -0.54720
      10    261.99    -0.49150 ( 99.87%)    -0.56587 (  0.13%)    -0.49160
      11    283.94    -0.45014 ( 99.90%)    -0.54203 (  0.10%)    -0.45023
   ------------------------------------------------------------------------

   temp. (K)  partition function   enthalpy   heat capacity  entropy
                                   cal/mol     cal/K/mol   cal/K/mol   J/K/mol
 298.15  VIB  0.337E+05             6664.609     41.223     41.389
         ROT  0.150E+07              888.727      2.981     31.247
         INT  0.507E+11             7553.336     44.204     72.636
         TR   0.828E+26             1481.212      4.968     41.696
         TOT                        9034.5483    49.1717   114.3327   478.3682

       T/K    H(0)-H(T)+PV         H(T)/Eh          T*S/Eh         G(T)/Eh
   ------------------------------------------------------------------------
    298.15    0.143975E-01    0.196727E+00    0.543232E-01    0.142404E+00
   ------------------------------------------------------------------------

         :::::::::::::::::::::::::::::::::::::::::::::::::::::
         ::                  THERMODYNAMIC                  ::
         :::::::::::::::::::::::::::::::::::::::::::::::::::::
         :: total free energy         -42.012017951293 Eh   ::
         ::.................................................::
         :: total energy              -42.154421982469 Eh   ::
         :: zero point energy           0.182329740444 Eh   ::
         :: G(RRHO) w/o ZPVE           -0.039925709268 Eh   ::
         :: G(RRHO) contrib.            0.142404031176 Eh   ::
         :::::::::::::::::::::::::::::::::::::::::::::::::::::

optimized geometry written to: xtbopt.xyz


           -------------------------------------------------
          | TOTAL ENERGY              -42.154421982469 Eh   |
          | TOTAL ENTHALPY            -41.957694772797 Eh   |
          | TOTAL FREE ENERGY         -42.012017951293 Eh   |
          | GRADIENT NORM               0.000043577792 Eh/α |
          | HOMO-LUMO GAP               3.395222820068 eV   |
           -------------------------------------------------

------------------------------------------------------------------------
 * finished run on 2026/06/25 at 16:29:05.968     
------------------------------------------------------------------------
 total:
 * wall-time:     0 d,  0 h,  0 min,  0.452 sec
 *  cpu-time:     0 d,  0 h,  0 min,  3.818 sec
 * ratio c/w:     8.444 speedup
 SCF:
 * wall-time:     0 d,  0 h,  0 min,  0.039 sec
 *  cpu-time:     0 d,  0 h,  0 min,  0.144 sec
 * ratio c/w:     3.707 speedup
 ANC optimizer:
 * wall-time:     0 d,  0 h,  0 min,  0.041 sec
 *  cpu-time:     0 d,  0 h,  0 min,  0.141 sec
 * ratio c/w:     3.429 speedup
 analytical hessian:
 * wall-time:     0 d,  0 h,  0 min,  0.358 sec
 *  cpu-time:     0 d,  0 h,  0 min,  3.507 sec
 * ratio c/w:     9.787 speedup

normal termination of xtb
Note: The following floating-point exceptions are signalling: IEEE_INVALID_FLAG IEEE_DIVIDE_BY_ZERO IEEE_UNDERFLOW_FLAG IEEE_DENORMAL
