      -----------------------------------------------------------      
     |                   =====================                   |     
     |                           x T B                           |     
     |                   =====================                   |     
     |                         S. Grimme                         |     
     |          Mulliken Center for Theoretical Chemistry        |     
     |                    University of Bonn                     |     
      -----------------------------------------------------------      

   * xtb version 6.7.1 (b9eb0ff) compiled by 'polt@simurgh' on 2026-06-25

   xtb is free software: you can redistribute it and/or modify it under
   the terms of the GNU Lesser General Public License as published by
   the Free Software Foundation, either version 3 of the License, or
   (at your option) any later version.
   
   xtb is distributed in the hope that it will be useful,
   but WITHOUT ANY WARRANTY; without even the implied warranty of
   MERCHANTABILITY or FITNESS FOR A PARTICULAR PURPOSE.  See the
   GNU Lesser General Public License for more details.
   
   Cite this work as:
   * C. Bannwarth, E. Caldeweyher, S. Ehlert, A. Hansen, P. Pracht,
     J. Seibert, S. Spicher, S. Grimme, WIREs Comput. Mol. Sci., 2020, 11,
     e01493. DOI: 10.1002/wcms.1493
   
   for GFN2-xTB:
   * C. Bannwarth, S. Ehlert and S. Grimme., J. Chem. Theory Comput., 2019,
     15, 1652-1671. DOI: 10.1021/acs.jctc.8b01176
   for GFN1-xTB:
   * S. Grimme, C. Bannwarth, P. Shushkov, J. Chem. Theory Comput., 2017,
     13, 1989-2009. DOI: 10.1021/acs.jctc.7b00118
   for GFN0-xTB:
   * P. Pracht, E. Caldeweyher, S. Ehlert, S. Grimme, ChemRxiv, 2019, preprint.
     DOI: 10.26434/chemrxiv.8326202.v1
   for GFN-FF:
   * S. Spicher and S. Grimme, Angew. Chem. Int. Ed., 2020, 59, 15665-15673.
     DOI: 10.1002/anie.202004239
   
   for ALPB and GBSA implicit solvation:
   * S. Ehlert, M. Stahn, S. Spicher, S. Grimme, J. Chem. Theory Comput.,
     2021, 17, 4250-4261. DOI: 10.1021/acs.jctc.1c00471
   
   for ddCOSMO and CPCM-X implicit solvation:
   * M. Stahn, S. Ehlert, S. Grimme, J. Phys. Chem. A,
     2023, XX, XXXX-XXXX. DOI: 10.1021/acs.jpca.3c04382
   
   for DFT-D4:
   * E. Caldeweyher, C. Bannwarth and S. Grimme, J. Chem. Phys., 2017,
     147, 034112. DOI: 10.1063/1.4993215
   * E. Caldeweyher, S. Ehlert, A. Hansen, H. Neugebauer, S. Spicher,
     C. Bannwarth and S. Grimme, J. Chem. Phys., 2019, 150, 154122.
     DOI: 10.1063/1.5090222
   * E. Caldeweyher, J.-M. Mewes, S. Ehlert and S. Grimme, Phys. Chem. Chem. Phys.
     2020, 22, 8499-8512. DOI: 10.1039/D0CP00502A
   
   for sTDA-xTB:
   * S. Grimme and C. Bannwarth, J. Chem. Phys., 2016, 145, 054103.
     DOI: 10.1063/1.4959605
   
   in the mass-spec context:
   * V. Asgeirsson, C. Bauer and S. Grimme, Chem. Sci., 2017, 8, 4879.
     DOI: 10.1039/c7sc00601b
   * J. Koopman and S. Grimme, ACS Omega 2019, 4, 12, 15120-15133.
     DOI: 10.1021/acsomega.9b02011
   
   for metadynamics refer to:
   * S. Grimme, J. Chem. Theory Comput., 2019, 155, 2847-2862
     DOI: 10.1021/acs.jctc.9b00143
   
   for SPH calculations refer to:
   * S. Spicher and S. Grimme, J. Chem. Theory Comput., 2021, 17, 1701-1714
     DOI: 10.1021/acs.jctc.0c01306
   
   for ONIOM refer to:
   * C. Plett, A. Katbashev, S. Ehlert, S. Grimme, M. Bursch,
     Phys. Chem. Chem. Phys., 2023, 25, 17860-17868. DOI: 10.1039/D3CP02178E
   
   for DIPRO refer to:
   * J. Kohn, N. Gildemeister, S. Grimme, D. Fazzi, A. Hansen,
     J. Chem. Phys. 159, 144106 (2023). DOI: 10.1063/5.0167484
   
   for PTB refer to:
   * S. Grimme, M. Mueller, A. Hansen, J. Chem. Phys., 2023, 158, 124111.
     DOI: 10.1063/5.0137838
   
   for O1NumHess refer to:
   * B. Wang, S. Luo, Z. Wang, W. Liu,
     J. Chem. Theory Comput. 21, 10893-10909.
     DOI: 10.1021/acs.jctc.5c01354
   
   with help from (in alphabetical order)
   P. Atkinson, C. Bannwarth, F. Bohle, G. Brandenburg, E. Caldeweyher
   M. Checinski, S. Dohm, S. Ehlert, S. Ehrlich, I. Gerasimov, C. Hölzer
   A. Katbashev, J. Kohn, J. Koopman, C. Lavigne, S. Lehtola, F. März, M. Müller,
   F. Musil, H. Neugebauer, J. Pisarek, C. Plett, P. Pracht, F. Pultar,
   J. Seibert, L. M. Seidler, P. Shushkov, S. Spicher, M. Stahn, M. Steiner, T. Strunk,
   J. Stückrath, T. Rose, and J. Unsleber
   
 * started run on 2026/06/25 at 16:52:56.749     
   ID    Z sym.   atoms
    1    6 C      1-3, 7, 8, 11, 14, 15, 19, 23, 26, 28-33, 39, 41, 42, 46,
                  47, 50, 54, 55, 57, 60, 62, 66, 72, 74, 80, 82, 86, 88,
                  90-95, 102-107
    2    1 H      4-6, 9, 10, 13, 16-18, 20-22, 24, 34-38, 40, 43, 44, 48,
                  49, 52, 53, 58, 63-65, 67-70, 75-78, 84, 85, 96-101, 108-113
    3    8 O      12, 25, 27, 45, 51, 56, 59, 61, 71, 73, 79, 81, 83, 89
    4    7 N      87

           -------------------------------------------------
          |                Calculation Setup                |
           -------------------------------------------------

          program call               : /home/polt/xtb/build-o1prof/xtb taxol.xyz --hess --o1nh
          coordinate file            : taxol.xyz
          omp threads                :                    28

########################################################################
[WARNING] Please study the warnings concerning your input carefully
-2- prog_main: Step size for O1NumHess can be chosen to be much smaller (recommended: 1.0e-6)
-1- prog_main: O1NumHess does not support calculation of IR or Raman activities
########################################################################

           -------------------------------------------------
          |                 G F N 2 - x T B                 |
           -------------------------------------------------

        Reference                      10.1021/acs.jctc.8b01176
      * Hamiltonian:
        H0-scaling (s, p, d)           1.850000    2.230000    2.230000
        zeta-weighting                 0.500000
      * Dispersion:
        s8                             2.700000
        a1                             0.520000
        a2                             5.000000
        s9                             5.000000
      * Repulsion:
        kExp                           1.500000    1.000000
        rExp                           1.000000
      * Coulomb:
        alpha                          2.000000
        third order                    shell-resolved
        anisotropic                    true
        a3                             3.000000
        a5                             4.000000
        cn-shift                       1.200000
        cn-exp                         4.000000
        max-rad                        5.000000


          ...................................................
          :                      SETUP                      :
          :.................................................:
          :  # basis functions                 299          :
          :  # atomic orbitals                 299          :
          :  # shells                          175          :
          :  # electrons                       328          :
          :  max. iterations                   250          :
          :  Hamiltonian                  GFN2-xTB          :
          :  restarted?                      false          :
          :  GBSA solvation                  false          :
          :  PC potential                    false          :
          :  electronic temp.          300.0000000     K    :
          :  accuracy                    1.0000000          :
          :  -> integral cutoff          0.2500000E+02      :
          :  -> integral neglect         0.1000000E-07      :
          :  -> SCF convergence          0.1000000E-05 Eh   :
          :  -> wf. convergence          0.1000000E-03 e    :
          :  Broyden damping             0.4000000          :
          :  net charge                          0          :
          :  unpaired electrons                  0          :
          ...................................................

 iter      E             dE          RMSdq      gap      omega  full diag
   1   -188.4585126 -0.188459E+03  0.430E+00    3.17       0.0  T
   2   -188.7672301 -0.308717E+00  0.238E+00    2.57       1.0  T
   3   -188.7755403 -0.831027E-02  0.125E+00    2.76       1.0  T
   4   -188.8053070 -0.297667E-01  0.222E-01    2.39       1.0  T
   5   -188.8088147 -0.350774E-02  0.102E-01    2.47       1.0  T
   6   -188.8095834 -0.768633E-03  0.447E-02    2.50       1.0  T
   7   -188.8096582 -0.747808E-04  0.200E-02    2.50       1.0  T
   8   -188.8096647 -0.650686E-05  0.764E-03    2.50       1.2  T
   9   -188.8096679 -0.325439E-05  0.330E-03    2.50       2.9  T
  10   -188.8096681 -0.193262E-06  0.177E-03    2.50       5.3  T
  11   -188.8096683 -0.187207E-06  0.709E-04    2.50      13.3  T
  12   -188.8096683 -0.145420E-07  0.320E-04    2.50      29.4  T

   *** convergence criteria satisfied after 12 iterations ***

         #    Occupation            Energy/Eh            Energy/eV
      -------------------------------------------------------------
         1        2.0000           -0.8001956             -21.7744
       ...           ...                  ...                  ...
       158        2.0000           -0.4213485             -11.4655
       159        2.0000           -0.4206048             -11.4452
       160        2.0000           -0.4170713             -11.3491
       161        2.0000           -0.4148164             -11.2877
       162        2.0000           -0.4135382             -11.2529
       163        2.0000           -0.4038464             -10.9892
       164        2.0000           -0.3987816             -10.8514 (HOMO)
       165                         -0.3068603              -8.3501 (LUMO)
       166                         -0.2921300              -7.9493
       167                         -0.2740418              -7.4571
       168                         -0.2652041              -7.2166
       169                         -0.2611443              -7.1061
       ...                                ...                  ...
       299                          0.6614375              17.9986
      -------------------------------------------------------------
                  HL-Gap            0.0919213 Eh            2.5013 eV
             Fermi-level           -0.3528209 Eh           -9.6007 eV

 SCC (total)                   0 d,  0 h,  0 min,  1.142 sec
 SCC setup                      ...        0 min,  0.000 sec (  0.042%)
 Dispersion                     ...        0 min,  0.005 sec (  0.452%)
 classical contributions        ...        0 min,  0.000 sec (  0.015%)
 integral evaluation            ...        0 min,  0.011 sec (  0.954%)
 iterations                     ...        0 min,  1.065 sec ( 93.177%)
 molecular gradient             ...        0 min,  0.044 sec (  3.810%)
 printout                       ...        0 min,  0.018 sec (  1.547%)

         :::::::::::::::::::::::::::::::::::::::::::::::::::::
         ::                     SUMMARY                     ::
         :::::::::::::::::::::::::::::::::::::::::::::::::::::
         :: total energy            -186.500449124213 Eh    ::
         :: gradient norm              0.142090738403 Eh/a0 ::
         :: HOMO-LUMO gap              2.501305953618 eV    ::
         ::.................................................::
         :: SCC energy              -188.798381924246 Eh    ::
         :: -> isotropic ES            0.336329706399 Eh    ::
         :: -> anisotropic ES         -0.000860166746 Eh    ::
         :: -> anisotropic XC          0.039433220075 Eh    ::
         :: -> dispersion             -0.169331199449 Eh    ::
         :: repulsion energy           2.297932800033 Eh    ::
         :: add. restraining           0.000000000000 Eh    ::
         :: total charge              -0.000000000000 e     ::
         :::::::::::::::::::::::::::::::::::::::::::::::::::::

           ------------------------------------------------- 
          |                Numerical Hessian                |
           ------------------------------------------------- 
step length          :   0.00500
SCC accuracy         :   0.30000
Hessian scale factor :   1.00000
frozen atoms in %    :   0.00000    0
RMS gradient         :   0.14209 !! INCOMPLETELY OPTIMIZED GEOMETRY !!
PROF gen_displdir: wall=     0.620 s, evals=15762, avg_nnb=   62.85, max_nnb=108
PROF gen_displdir: extract=     0.147 s, orth=     5.743 s, proj=     5.620 s, diag=     2.472 s, sign=     0.018 s
========================================================
PROF odlrhessian: natoms=113, ndispl=117
PROF odlrhessian: setup        =      0.008 s
PROF odlrhessian: ref_singlept =      0.350 s
PROF odlrhessian: grad_evals   =      8.771 s
PROF odlrhessian: dirgen       =      0.621 s
PROF odlrhessian: local_solve  =      2.479 s
PROF odlrhessian: neg_mode     =      6.454 s
PROF odlrhessian: TOTAL        =     18.683 s
========================================================
Error norm for predicted gradient (ODLR Hessian):   1.3533E-02

writing file <hessian>, containing the non-mass-weighted Hessian matrix in atomic units (Eₕ/Bohr²).

 projected vibrational frequencies (cm⁻¹)
eigval :       -0.00    -0.00    -0.00     0.00     0.00     0.00
eigval :      -64.91   -31.44   -15.73   -12.86    15.46    27.39
eigval :       32.95    42.25    43.38    47.03    51.19    55.38
eigval :       61.98    69.72    77.05    80.01    82.68    89.29
eigval :       92.23    96.09   105.55   111.72   114.15   118.07
eigval :      123.41   136.34   140.59   146.47   159.28   162.70
eigval :      168.85   173.95   180.94   183.64   190.65   196.32
eigval :      204.85   210.90   216.28   231.44   235.33   237.95
eigval :      246.57   252.10   256.69   265.17   267.53   279.28
eigval :      285.75   289.66   294.53   301.32   311.70   316.81
eigval :      320.62   329.25   338.59   339.15   351.55   354.71
eigval :      363.84   367.59   372.79   380.61   382.34   384.39
eigval :      386.46   388.25   393.33   396.18   403.35   408.01
eigval :      412.92   417.72   421.32   427.74   442.36   450.63
eigval :      458.43   459.96   474.49   478.99   492.07   498.53
eigval :      510.82   524.95   525.36   532.13   541.40   546.38
eigval :      552.92   555.45   561.70   579.01   580.66   587.63
eigval :      591.36   591.83   595.87   600.32   618.85   620.60
eigval :      623.48   634.79   645.89   652.66   656.19   657.95
eigval :      666.53   675.59   678.34   685.03   694.28   700.37
eigval :      708.40   727.74   734.08   754.80   767.35   776.27
eigval :      781.11   789.66   793.71   801.00   802.49   829.58
eigval :      845.08   852.79   863.22   866.45   879.50   895.49
eigval :      901.31   903.70   910.34   913.74   917.40   925.18
eigval :      931.66   936.13   943.96   947.00   947.67   950.17
eigval :      951.55   953.39   957.29   961.63   968.53   974.39
eigval :      979.45   980.96   987.96   990.30   994.95  1002.57
eigval :     1003.86  1007.71  1015.24  1016.14  1019.96  1021.09
eigval :     1027.27  1031.36  1036.32  1041.86  1048.24  1057.75
eigval :     1060.45  1067.34  1073.35  1076.72  1082.64  1083.64
eigval :     1084.40  1088.03  1089.16  1097.11  1101.31  1108.42
eigval :     1115.22  1117.51  1123.80  1126.35  1128.62  1136.12
eigval :     1137.84  1141.49  1144.93  1152.01  1161.52  1172.16
eigval :     1178.73  1179.74  1185.81  1189.48  1191.33  1191.62
eigval :     1192.61  1194.87  1200.42  1201.62  1203.76  1205.36
eigval :     1206.69  1210.10  1220.32  1222.05  1226.60  1232.38
eigval :     1240.23  1240.92  1247.00  1268.60  1273.79  1280.23
eigval :     1281.47  1287.43  1288.24  1290.42  1291.65  1293.07
eigval :     1298.87  1301.44  1303.38  1305.83  1309.53  1311.25
eigval :     1316.59  1319.26  1325.06  1326.66  1329.89  1332.64
eigval :     1333.86  1341.38  1355.74  1360.48  1364.20  1365.82
eigval :     1371.93  1379.08  1400.92  1401.77  1406.85  1419.23
eigval :     1425.54  1431.69  1432.09  1435.22  1437.28  1441.41
eigval :     1450.97  1452.18  1454.76  1461.04  1463.29  1464.17
eigval :     1465.51  1468.22  1474.43  1482.06  1487.61  1490.20
eigval :     1499.59  1505.83  1512.42  1524.70  1525.80  1581.46
eigval :     1586.95  1593.31  1593.81  1594.55  1604.17  1660.26
eigval :     1675.12  1679.97  1701.11  1710.67  1713.80  1743.44
eigval :     2885.03  2886.09  2929.10  2947.60  2953.42  2965.33
eigval :     2967.28  2985.98  2991.50  2994.47  2996.96  2998.07
eigval :     2998.46  3010.75  3015.01  3016.89  3017.27  3020.94
eigval :     3022.19  3023.73  3024.66  3024.87  3026.76  3027.66
eigval :     3031.46  3033.71  3035.90  3036.26  3036.54  3037.64
eigval :     3039.12  3040.36  3043.27  3043.53  3045.94  3048.33
eigval :     3050.48  3052.63  3055.57  3062.83  3063.77  3069.30
eigval :     3072.58  3073.51  3074.03  3083.36  3137.16  3155.24
eigval :     3276.59  3307.42  3381.42
           -------------------------------------------------
          |                Property Printout                |
           -------------------------------------------------

    * Orbital Energies and Occupations

         #    Occupation            Energy/Eh            Energy/eV
      -------------------------------------------------------------
         1        2.0000           -0.8001947             -21.7744
       ...           ...                  ...                  ...
       152        2.0000           -0.4383178             -11.9272
       153        2.0000           -0.4338089             -11.8045
       154        2.0000           -0.4285957             -11.6627
       155        2.0000           -0.4256723             -11.5831
       156        2.0000           -0.4238992             -11.5349
       157        2.0000           -0.4227327             -11.5031
       158        2.0000           -0.4213475             -11.4654
       159        2.0000           -0.4206052             -11.4452
       160        2.0000           -0.4170701             -11.3491
       161        2.0000           -0.4148169             -11.2877
       162        2.0000           -0.4135365             -11.2529
       163        2.0000           -0.4038478             -10.9893
       164        2.0000           -0.3987808             -10.8514 (HOMO)
       165                         -0.3068578              -8.3500 (LUMO)
       166                         -0.2921302              -7.9493
       167                         -0.2740399              -7.4570
       168                         -0.2652050              -7.2166
       169                         -0.2611433              -7.1061
       170                         -0.2593632              -7.0576
       171                         -0.2478323              -6.7439
       172                         -0.2460521              -6.6954
       173                         -0.2442492              -6.6464
       174                         -0.2411019              -6.5607
       175                         -0.2228623              -6.0644
       ...                                ...                  ...
       299                          0.6614396              17.9987
      -------------------------------------------------------------
                  HL-Gap            0.0919230 Eh            2.5014 eV
             Fermi-level           -0.3528193 Eh           -9.6007 eV

     #   Z          covCN         q      C6AA      α(0)
     1   6          2.963    -0.051    29.276     8.875
     2   6          2.966    -0.012    28.320     8.729
     3   6          3.755    -0.129    23.027     6.842
     4   1          0.924     0.089     1.890     2.150
     5   1          0.925     0.076     2.021     2.223
     6   1          0.925     0.064     2.151     2.293
     7   6          3.818     0.107    18.807     6.172
     8   6          3.810    -0.073    21.880     6.658
     9   1          0.924     0.040     2.455     2.450
    10   1          0.925     0.069     2.098     2.265
    11   6          3.788     0.132    18.449     6.117
    12   8          1.654    -0.487    22.611     6.419
    13   1          0.808     0.334     0.627     1.243
    14   6          3.912     0.012    20.319     6.407
    15   6          3.767    -0.130    23.038     6.841
    16   1          0.926     0.045     2.379     2.412
    17   1          0.925     0.058     2.217     2.328
    18   1          0.924     0.077     2.011     2.217
    19   6          3.761    -0.119    22.821     6.810
    20   1          0.925     0.076     2.020     2.223
    21   1          0.925     0.035     2.510     2.478
    22   1          0.925     0.061     2.184     2.311
    23   6          3.755     0.092    19.104     6.232
    24   1          0.924     0.061     2.188     2.313
    25   8          1.710    -0.248    18.113     5.746
    26   6          2.729     0.358    20.931     7.490
    27   8          0.862    -0.436    22.416     6.348
    28   6          2.973    -0.025    28.625     8.776
    29   6          2.925    -0.017    28.428     8.744
    30   6          2.916    -0.023    28.570     8.765
    31   6          2.920    -0.017    28.423     8.743
    32   6          2.917    -0.023    28.581     8.767
    33   6          2.922    -0.032    28.788     8.799
    34   1          0.925     0.066     2.127     2.280
    35   1          0.925     0.046     2.374     2.409
    36   1          0.925     0.048     2.340     2.392
    37   1          0.925     0.050     2.317     2.380
    38   1          0.925     0.066     2.129     2.282
    39   6          3.850    -0.050    21.442     6.586
    40   1          0.925     0.067     2.121     2.277
    41   6          3.863     0.139    18.304     6.084
    42   6          4.035     0.075    19.249     6.232
    43   1          0.925     0.049     2.329     2.386
    44   1          0.924     0.058     2.227     2.334
    45   8          1.725    -0.335    19.606     5.978
    46   6          4.088     0.109    18.726     6.147
    47   6          3.804    -0.079    22.002     6.678
    48   1          0.924     0.074     2.039     2.233
    49   1          0.924     0.095     1.828     2.115
    50   6          3.772     0.120    18.647     6.153
    51   8          1.655    -0.456    21.973     6.328
    52   1          0.804     0.325     0.650     1.266
    53   1          0.923     0.036     2.508     2.477
    54   6          3.901    -0.021    20.891     6.497
    55   6          2.858     0.221    23.345     7.920
    56   8          0.858    -0.371    21.110     6.160
    57   6          3.751     0.082    19.267     6.260
    58   1          0.923     0.104     1.746     2.066
    59   8          1.706    -0.221    17.665     5.675
    60   6          2.699     0.364    20.818     7.468
    61   8          0.858    -0.412    21.930     6.279
    62   6          3.752    -0.158    23.622     6.931
    63   1          0.925     0.073     2.057     2.243
    64   1          0.925     0.087     1.906     2.159
    65   1          0.925     0.065     2.140     2.288
    66   6          3.758    -0.120    22.847     6.815
    67   1          0.925     0.038     2.472     2.459
    68   1          0.925     0.073     2.052     2.240
    69   1          0.924     0.081     1.974     2.197
    70   1          0.924     0.046     2.373     2.409
    71   8          1.709    -0.249    18.131     5.749
    72   6          2.737     0.366    20.794     7.466
    73   8          0.856    -0.442    22.542     6.366
    74   6          3.754    -0.157    23.600     6.927
    75   1          0.925     0.114     1.660     2.015
    76   1          0.925     0.069     2.097     2.265
    77   1          0.925     0.074     2.038     2.232
    78   1          0.925     0.084     1.940     2.178
    79   8          1.707    -0.228    17.787     5.694
    80   6          2.772     0.345    21.149     7.532
    81   8          0.857    -0.422    22.123     6.306
    82   6          3.737     0.083    19.272     6.265
    83   8          1.655    -0.442    21.677     6.285
    84   1          0.804     0.326     0.649     1.266
    85   1          0.924     0.060     2.201     2.320
    86   6          3.798     0.037    19.957     6.361
    87   7          2.693    -0.213    25.637     7.520
    88   6          2.758     0.273    22.385     7.748
    89   8          0.860    -0.441    22.521     6.363
    90   6          2.974    -0.018    28.449     8.749
    91   6          2.922    -0.030    28.760     8.794
    92   6          2.917    -0.028    28.692     8.784
    93   6          2.920    -0.024    28.598     8.770
    94   6          2.917    -0.026    28.643     8.776
    95   6          2.927    -0.019    28.485     8.753
    96   1          0.925     0.054     2.272     2.357
    97   1          0.925     0.042     2.424     2.435
    98   1          0.925     0.039     2.461     2.453
    99   1          0.925     0.037     2.491     2.468
   100   1          0.925     0.033     2.549     2.497
   101   1          0.860     0.202     1.094     1.638
   102   6          2.975    -0.001    28.041     8.686
   103   6          2.923    -0.038    28.947     8.823
   104   6          2.918    -0.032    28.790     8.799
   105   6          2.920    -0.028    28.699     8.785
   106   6          2.917    -0.025    28.629     8.774
   107   6          2.926    -0.032    28.795     8.800
   108   1          0.925     0.054     2.266     2.354
   109   1          0.925     0.042     2.424     2.435
   110   1          0.925     0.036     2.499     2.472
   111   1          0.925     0.029     2.607     2.525
   112   1          0.925     0.019     2.743     2.590
   113   1          0.925     0.074     2.045     2.236

 Mol. C6AA /au·bohr⁶  :     137906.756681
 Mol. C8AA /au·bohr⁸  :    3235923.193384
 Mol. α(0) /au        :        564.879407


Wiberg/Mayer (AO) data.
largest (>0.10) Wiberg bond orders for each atom

 ---------------------------------------------------------------------------
     #   Z sym  total        # sym  WBO       # sym  WBO       # sym  WBO
 ---------------------------------------------------------------------------
     1   6      3.968 --     2      1.801    14      0.991    57      0.962
     2   6      3.981 --     1      1.801     3      1.033     7      0.999
     3   6      3.988 --     2      1.033     6      0.976     5      0.970
                             4      0.936
     4   1      0.992 --     3      0.936
     5   1      0.994 --     3      0.970
     6   1      0.995 --     3      0.976
     7   6      3.907 --     2      0.999     8      0.964    78      0.933
                            79      0.907
     8   6      3.991 --    11      0.974    10      0.971     9      0.969
                             7      0.964
     9   1      0.998 --     8      0.969
    10   1      0.995 --     8      0.971
    11   6      3.960 --    12      1.000     8      0.974    23      0.954
                            14      0.933
    12   8      1.933 --    11      1.000    13      0.783
    13   1      0.888 --    12      0.783
    14   6      3.986 --    15      1.003     1      0.991    19      0.977
                            11      0.933
    15   6      3.989 --    14      1.003    17      0.972    18      0.969
                            16      0.943
    16   1      0.998 --    15      0.943
    17   1      0.996 --    15      0.972
    18   1      0.993 --    15      0.969
    19   6      3.987 --    21      0.982    22      0.979    20      0.977
                            14      0.977
    20   1      0.994 --    19      0.977
    21   1      0.999 --    19      0.982
    22   1      0.996 --    19      0.979
    23   6      3.910 --    39      0.966    11      0.954    24      0.948
                            25      0.914
    24   1      0.996 --    23      0.948
    25   8      2.355 --    26      1.175    23      0.914    27      0.163
    26   6      3.907 --    27      1.632    25      1.175    28      1.005
    27   8      2.043 --    26      1.632    25      0.163
    28   6      3.984 --    29      1.382    33      1.377    26      1.005
                            31      0.100
    29   6      3.986 --    30      1.454    28      1.382    38      0.964
                            32      0.106
    30   6      3.990 --    29      1.454    31      1.433    37      0.969
                            33      0.107
    31   6      3.989 --    30      1.433    32      1.431    36      0.970
                            28      0.100
    32   6      3.991 --    33      1.454    31      1.431    35      0.969
                            29      0.106
    33   6      3.987 --    32      1.454    28      1.377    34      0.952
                            30      0.107
    34   1      0.996 --    33      0.952
    35   1      0.997 --    32      0.969
    36   1      0.997 --    31      0.970
    37   1      0.997 --    30      0.969
    38   1      0.996 --    29      0.964
    39   6      3.986 --    54      0.975    41      0.969    23      0.966
                            40      0.943
    40   1      0.996 --    39      0.943
    41   6      3.920 --    42      0.977    39      0.969    46      0.953
                            71      0.920
    42   6      3.950 --    41      0.977    45      0.972    43      0.970
                            44      0.967
    43   1      0.997 --    42      0.970
    44   1      0.996 --    42      0.967
    45   8      2.022 --    42      0.972    46      0.955
    46   6      3.944 --    47      0.999    70      0.963    45      0.955
                            41      0.953
    47   6      3.985 --    46      0.999    50      0.982    48      0.968
                            49      0.959
    48   1      0.994 --    47      0.968
    49   1      0.991 --    47      0.959
    50   6      3.963 --    51      1.019    47      0.982    53      0.947
                            54      0.899
    51   8      1.953 --    50      1.019    52      0.820
    52   1      0.894 --    51      0.820
    53   1      0.999 --    50      0.947
    54   6      3.983 --    66      0.996    39      0.975    55      0.967
                            50      0.899
    55   6      3.917 --    56      1.755    57      0.975    54      0.967
    56   8      2.081 --    55      1.755
    57   6      3.938 --    55      0.975     1      0.962    59      0.936
                            58      0.896
    58   1      0.989 --    57      0.896
    59   8      2.366 --    60      1.159    57      0.936    61      0.155
    60   6      3.909 --    61      1.719    59      1.159    62      0.984
    61   8      2.004 --    60      1.719    59      0.155
    62   6      3.991 --    60      0.984    63      0.984    65      0.959
                            64      0.951
    63   1      0.995 --    62      0.984
    64   1      0.992 --    62      0.951
    65   1      0.996 --    62      0.959
    66   6      3.985 --    54      0.996    69      0.974    68      0.972
                            67      0.969
    67   1      0.998 --    66      0.969
    68   1      0.994 --    66      0.972
    69   1      0.993 --    66      0.974
    70   1      0.998 --    46      0.963
    71   8      2.350 --    72      1.162    41      0.920    73      0.164
    72   6      3.905 --    73      1.699    71      1.162    74      0.982
    73   8      2.000 --    72      1.699    71      0.164
    74   6      3.981 --    72      0.982    75      0.963    77      0.963
                            76      0.954
    75   1      0.986 --    74      0.963
    76   1      0.995 --    74      0.954
    77   1      0.994 --    74      0.963
    78   1      0.993 --     7      0.933
    79   8      2.382 --    80      1.187     7      0.907    81      0.169
    80   6      3.917 --    81      1.699    79      1.187    82      0.949
    81   8      2.035 --    80      1.699    79      0.169
    82   6      3.969 --    83      1.018    80      0.949    85      0.941
                            86      0.923
    83   8      1.954 --    82      1.018    84      0.846
    84   1      0.894 --    83      0.846
    85   1      0.995 --    82      0.941
    86   6      3.971 --    87      0.996   102      0.988   113      0.946
                            82      0.923
    87   7      3.412 --    88      1.226    86      0.996   101      0.895
                            89      0.186
    88   6      3.946 --    89      1.658    87      1.226    90      0.991
    89   8      1.995 --    88      1.658    87      0.186
    90   6      3.988 --    95      1.394    91      1.394    88      0.991
                            93      0.106
    91   6      3.991 --    92      1.446    90      1.394   100      0.967
                            94      0.109
    92   6      3.992 --    91      1.446    93      1.437    99      0.970
                            95      0.110
    93   6      3.991 --    92      1.437    94      1.435    98      0.971
                            90      0.106
    94   6      3.991 --    95      1.450    93      1.435    97      0.970
                            91      0.109
    95   6      3.989 --    94      1.450    90      1.394    96      0.967
                            92      0.110
    96   1      0.997 --    95      0.967
    97   1      0.998 --    94      0.970
    98   1      0.998 --    93      0.971
    99   1      0.998 --    92      0.970
   100   1      0.999 --    91      0.967
   101   1      0.958 --    87      0.895
   102   6      3.987 --   103      1.416   107      1.406    86      0.988
                           105      0.109
   103   6      3.992 --   104      1.440   102      1.416   112      0.958
                           106      0.110
   104   6      3.992 --   103      1.440   105      1.440   111      0.966
                           107      0.112
   105   6      3.991 --   104      1.440   106      1.437   110      0.971
                           102      0.109
   106   6      3.991 --   107      1.447   105      1.437   109      0.970
                           103      0.110
   107   6      3.989 --   106      1.447   102      1.406   108      0.966
                           104      0.112
   108   1      0.997 --   107      0.966
   109   1      0.998 --   106      0.970
   110   1      0.998 --   105      0.971
   111   1      0.999 --   104      0.966
   112   1      1.000 --   103      0.958
   113   1      0.994 --    86      0.946
 ---------------------------------------------------------------------------

Topologies differ in total number of bonds
Writing topology from bond orders to xtbtopo.mol

molecular dipole:
                 x           y           z       tot (Debye)
 q only:        2.589       2.717       2.183
   full:        2.946       3.006       2.575      12.541
molecular quadrupole (traceless):
                xx          xy          yy          xz          yz          zz
 q only:       17.123      -2.358       2.073     -22.240      -8.633     -19.196
  q+dip:       13.859      -1.743       5.013     -32.133      -5.186     -18.872
   full:       12.194      -3.948       8.937     -30.076      -9.112     -21.131

           -------------------------------------------------
          |               Frequency Printout                |
           -------------------------------------------------
 projected vibrational frequencies (cm⁻¹)
eigval :       -0.00    -0.00    -0.00     0.00     0.00     0.00
eigval :      -64.91   -31.44   -15.73   -12.86    15.46    27.39
eigval :       32.95    42.25    43.38    47.03    51.19    55.38
eigval :       61.98    69.72    77.05    80.01    82.68    89.29
eigval :       92.23    96.09   105.55   111.72   114.15   118.07
eigval :      123.41   136.34   140.59   146.47   159.28   162.70
eigval :      168.85   173.95   180.94   183.64   190.65   196.32
eigval :      204.85   210.90   216.28   231.44   235.33   237.95
eigval :      246.57   252.10   256.69   265.17   267.53   279.28
eigval :      285.75   289.66   294.53   301.32   311.70   316.81
eigval :      320.62   329.25   338.59   339.15   351.55   354.71
eigval :      363.84   367.59   372.79   380.61   382.34   384.39
eigval :      386.46   388.25   393.33   396.18   403.35   408.01
eigval :      412.92   417.72   421.32   427.74   442.36   450.63
eigval :      458.43   459.96   474.49   478.99   492.07   498.53
eigval :      510.82   524.95   525.36   532.13   541.40   546.38
eigval :      552.92   555.45   561.70   579.01   580.66   587.63
eigval :      591.36   591.83   595.87   600.32   618.85   620.60
eigval :      623.48   634.79   645.89   652.66   656.19   657.95
eigval :      666.53   675.59   678.34   685.03   694.28   700.37
eigval :      708.40   727.74   734.08   754.80   767.35   776.27
eigval :      781.11   789.66   793.71   801.00   802.49   829.58
eigval :      845.08   852.79   863.22   866.45   879.50   895.49
eigval :      901.31   903.70   910.34   913.74   917.40   925.18
eigval :      931.66   936.13   943.96   947.00   947.67   950.17
eigval :      951.55   953.39   957.29   961.63   968.53   974.39
eigval :      979.45   980.96   987.96   990.30   994.95  1002.57
eigval :     1003.86  1007.71  1015.24  1016.14  1019.96  1021.09
eigval :     1027.27  1031.36  1036.32  1041.86  1048.24  1057.75
eigval :     1060.45  1067.34  1073.35  1076.72  1082.64  1083.64
eigval :     1084.40  1088.03  1089.16  1097.11  1101.31  1108.42
eigval :     1115.22  1117.51  1123.80  1126.35  1128.62  1136.12
eigval :     1137.84  1141.49  1144.93  1152.01  1161.52  1172.16
eigval :     1178.73  1179.74  1185.81  1189.48  1191.33  1191.62
eigval :     1192.61  1194.87  1200.42  1201.62  1203.76  1205.36
eigval :     1206.69  1210.10  1220.32  1222.05  1226.60  1232.38
eigval :     1240.23  1240.92  1247.00  1268.60  1273.79  1280.23
eigval :     1281.47  1287.43  1288.24  1290.42  1291.65  1293.07
eigval :     1298.87  1301.44  1303.38  1305.83  1309.53  1311.25
eigval :     1316.59  1319.26  1325.06  1326.66  1329.89  1332.64
eigval :     1333.86  1341.38  1355.74  1360.48  1364.20  1365.82
eigval :     1371.93  1379.08  1400.92  1401.77  1406.85  1419.23
eigval :     1425.54  1431.69  1432.09  1435.22  1437.28  1441.41
eigval :     1450.97  1452.18  1454.76  1461.04  1463.29  1464.17
eigval :     1465.51  1468.22  1474.43  1482.06  1487.61  1490.20
eigval :     1499.59  1505.83  1512.42  1524.70  1525.80  1581.46
eigval :     1586.95  1593.31  1593.81  1594.55  1604.17  1660.26
eigval :     1675.12  1679.97  1701.11  1710.67  1713.80  1743.44
eigval :     2885.03  2886.09  2929.10  2947.60  2953.42  2965.33
eigval :     2967.28  2985.98  2991.50  2994.47  2996.96  2998.07
eigval :     2998.46  3010.75  3015.01  3016.89  3017.27  3020.94
eigval :     3022.19  3023.73  3024.66  3024.87  3026.76  3027.66
eigval :     3031.46  3033.71  3035.90  3036.26  3036.54  3037.64
eigval :     3039.12  3040.36  3043.27  3043.53  3045.94  3048.33
eigval :     3050.48  3052.63  3055.57  3062.83  3063.77  3069.30
eigval :     3072.58  3073.51  3074.03  3083.36  3137.16  3155.24
eigval :     3276.59  3307.42  3381.42
 reduced masses (amu)
    1:      7.18    2:      7.39    3:      7.13    4:      7.29    5:      7.00    6:      7.23
    7:      7.26    8:      7.27    9:      6.37   10:      6.11   11:      6.23   12:      6.57
   13:      6.00   14:      5.73   15:      5.32   16:      4.33   17:      6.27   18:      5.35
   19:      5.46   20:      5.64   21:      4.43   22:      6.25   23:      4.89   24:      5.54
   25:      5.00   26:      4.29   27:      3.72   28:      5.16   29:      2.19   30:      3.77
   31:      4.65   32:      5.80   33:      4.05   34:      4.70   35:      4.31   36:      4.68
   37:      4.27   38:      4.69   39:      3.75   40:      4.69   41:      5.30   42:      4.73
   43:      6.28   44:      5.21   45:      3.82   46:      1.81   47:      4.50   48:      3.66
   49:      2.49   50:      1.94   51:      2.46   52:      2.66   53:      3.76   54:      3.49
   55:      3.78   56:      3.77   57:      1.77   58:      2.58   59:      4.30   60:      6.27
   61:      2.85   62:      4.84   63:      2.04   64:      2.94   65:      2.47   66:      3.25
   67:      4.35   68:      2.94   69:      2.27   70:      3.36   71:      3.19   72:      4.43
   73:      3.27   74:      3.20   75:      4.51   76:      4.95   77:      4.36   78:      4.39
   79:      3.78   80:      3.72   81:      4.68   82:      5.00   83:      4.23   84:      2.28
   85:      1.77   86:      1.95   87:      3.35   88:      4.25   89:      2.86   90:      3.30
   91:      4.13   92:      4.55   93:      4.12   94:      3.21   95:      4.22   96:      4.43
   97:      4.70   98:      2.81   99:      4.78  100:      3.21  101:      3.71  102:      6.48
  103:      6.17  104:      6.46  105:      4.96  106:      5.18  107:      3.87  108:      4.20
  109:      3.24  110:      2.67  111:      3.34  112:      5.10  113:      3.74  114:      5.04
  115:      5.11  116:      2.82  117:      3.95  118:      4.00  119:      4.92  120:      3.37
  121:      2.62  122:      1.43  123:      4.63  124:      3.61  125:      4.05  126:      4.03
  127:      1.74  128:      2.09  129:      2.22  130:      1.52  131:      4.13  132:      3.73
  133:      3.63  134:      6.91  135:      3.95  136:      3.53  137:      2.79  138:      1.24
  139:      1.24  140:      1.61  141:      1.68  142:      2.57  143:      1.51  144:      2.06
  145:      1.37  146:      2.22  147:      1.54  148:      1.76  149:      1.34  150:      1.25
  151:      1.26  152:      1.29  153:      1.38  154:      2.46  155:      1.86  156:      2.21
  157:      2.45  158:      5.66  159:      4.94  160:      4.64  161:      2.35  162:      1.74
  163:      1.82  164:      2.16  165:      2.51  166:      1.88  167:      2.60  168:      1.92
  169:      2.02  170:      1.71  171:      2.58  172:      2.28  173:      2.75  174:      2.23
  175:      3.00  176:      3.61  177:      3.16  178:      3.02  179:      2.51  180:      2.79
  181:      2.10  182:      2.60  183:      2.07  184:      2.71  185:      2.72  186:      3.63
  187:      2.86  188:      1.95  189:      2.14  190:      1.40  191:      1.63  192:      1.63
  193:      2.74  194:      1.78  195:      2.95  196:      1.31  197:      1.59  198:      2.15
  199:      2.32  200:      2.46  201:      1.77  202:      1.11  203:      1.17  204:      1.59
  205:      1.07  206:      1.56  207:      1.61  208:      1.65  209:      1.28  210:      1.24
  211:      1.26  212:      2.43  213:      1.61  214:      1.44  215:      1.22  216:      1.63
  217:      1.91  218:      2.26  219:      1.87  220:      1.44  221:      1.61  222:      1.42
  223:      2.02  224:      1.47  225:      1.81  226:      1.26  227:      1.32  228:      1.73
  229:      1.48  230:      2.60  231:      1.57  232:      2.58  233:      2.17  234:      1.79
  235:      8.86  236:      1.89  237:      4.34  238:      1.75  239:      1.55  240:      7.22
  241:      1.56  242:      2.05  243:      1.40  244:      1.54  245:      1.67  246:      1.54
  247:      1.24  248:      1.40  249:      1.30  250:      1.51  251:      1.69  252:      1.17
  253:      1.21  254:      1.22  255:      2.69  256:      2.17  257:      2.16  258:      2.74
  259:      1.07  260:      1.10  261:      1.12  262:      1.07  263:      1.08  264:      1.11
  265:      2.45  266:      1.09  267:      2.99  268:      2.92  269:      1.07  270:      1.06
  271:      1.06  272:      1.06  273:      1.06  274:      1.06  275:      1.06  276:      7.72
  277:      8.12  278:      7.43  279:      7.65  280:      7.82  281:      7.71  282:     11.07
  283:     10.55  284:     11.91  285:     11.64  286:     10.70  287:     11.35  288:     11.02
  289:      1.07  290:      1.07  291:      1.07  292:      1.08  293:      1.07  294:      1.08
  295:      1.07  296:      1.07  297:      1.09  298:      1.07  299:      1.06  300:      1.07
  301:      1.07  302:      1.07  303:      1.07  304:      1.06  305:      1.08  306:      1.08
  307:      1.08  308:      1.09  309:      1.08  310:      1.08  311:      1.08  312:      1.08
  313:      1.08  314:      1.08  315:      1.07  316:      1.08  317:      1.06  318:      1.08
  319:      1.08  320:      1.09  321:      1.07  322:      1.07  323:      1.06  324:      1.08
  325:      1.06  326:      1.09  327:      1.09  328:      1.07  329:      1.06  330:      1.09
  331:      1.07  332:      1.09  333:      1.09  334:      1.07  335:      1.07  336:      1.07
  337:      1.07  338:      1.07  339:      1.07
           -------------------------------------------------
          |             Thermodynamic Functions             |
           -------------------------------------------------

Molecule has no symmetry elements
It seems to be the C1 point group
c1  symmetry found (for desy threshold:  0.10E+00) used in thermo
 inverting freq            3   15.733575053147757     
 inverting freq            4   12.864155331048680     

          ...................................................
          :                      SETUP                      :
          :.................................................:
          :  # frequencies                         331      :
          :  # imaginary freq.                       2      :
          :  linear?                             false      :
          :  only rotor calc.                    false      :
          :  symmetry                               c1      :
          :  rotational number                       1      :
          :  scaling factor                  1.0000000      :
          :  rotor cutoff                   50.0000000 cm⁻¹ :
          :  imag. cutoff                  -20.0000000 cm⁻¹ :
          :.................................................:

    mode    ω/cm⁻¹     T·S(HO)/kcal·mol⁻¹    T·S(FR)/kcal·mol⁻¹   T·S(vib)
   ------------------------------------------------------------------------
       1     15.73    -2.12005 (  0.97%)    -1.39905 ( 99.03%)    -1.40605
       2     12.86    -2.23931 (  0.44%)    -1.45869 ( 99.56%)    -1.46210
       3     15.46    -2.13059 (  0.90%)    -1.40432 ( 99.10%)    -1.41089
       4     27.39    -1.79180 (  8.27%)    -1.23479 ( 91.73%)    -1.28083
       5     32.95    -1.68256 ( 15.87%)    -1.18007 ( 84.13%)    -1.25981
       6     42.25    -1.53570 ( 33.76%)    -1.10644 ( 66.24%)    -1.25138
       7     43.38    -1.52005 ( 36.17%)    -1.09859 ( 63.83%)    -1.25105
       8     47.03    -1.47240 ( 43.91%)    -1.07468 ( 56.09%)    -1.24931
       9     51.19    -1.42240 ( 52.36%)    -1.04956 ( 47.64%)    -1.24476
      10     55.38    -1.37613 ( 60.07%)    -1.02630 ( 39.93%)    -1.23644
      11     61.98    -1.30981 ( 70.25%)    -0.99292 ( 29.75%)    -1.21553
      12     69.72    -1.24069 ( 79.08%)    -0.95806 ( 20.92%)    -1.18156
      13     77.05    -1.18206 ( 84.94%)    -0.92844 ( 15.06%)    -1.14386
      14     80.01    -1.15999 ( 86.77%)    -0.91728 ( 13.23%)    -1.12787
      15     82.68    -1.14079 ( 88.20%)    -0.90755 ( 11.80%)    -1.11327
      16     89.29    -1.09585 ( 91.05%)    -0.88476 (  8.95%)    -1.07695
      17     92.23    -1.07699 ( 92.05%)    -0.87517 (  7.95%)    -1.06094
      18     96.09    -1.05310 ( 93.17%)    -0.86302 (  6.83%)    -1.04012
      19    105.55    -0.99853 ( 95.21%)    -0.83520 (  4.79%)    -0.99070
      20    111.72    -0.96565 ( 96.14%)    -0.81838 (  3.86%)    -0.95997
      21    114.15    -0.95323 ( 96.45%)    -0.81201 (  3.55%)    -0.94822
      22    118.07    -0.93372 ( 96.88%)    -0.80200 (  3.12%)    -0.92961
      23    123.41    -0.90824 ( 97.38%)    -0.78889 (  2.62%)    -0.90511
      24    136.34    -0.85108 ( 98.22%)    -0.75937 (  1.78%)    -0.84945
      25    140.59    -0.83359 ( 98.43%)    -0.75029 (  1.57%)    -0.83228
      26    146.47    -0.81024 ( 98.66%)    -0.73814 (  1.34%)    -0.80927
      27    159.28    -0.76277 ( 99.04%)    -0.71332 (  0.96%)    -0.76230
      28    162.70    -0.75079 ( 99.12%)    -0.70701 (  0.88%)    -0.75040
      29    168.85    -0.72995 ( 99.24%)    -0.69603 (  0.76%)    -0.72969
      30    173.95    -0.71327 ( 99.32%)    -0.68720 (  0.68%)    -0.71309
      31    180.94    -0.69131 ( 99.42%)    -0.67553 (  0.58%)    -0.69122
      32    183.64    -0.68309 ( 99.45%)    -0.67116 (  0.55%)    -0.68303
      33    190.65    -0.66233 ( 99.53%)    -0.66005 (  0.47%)    -0.66232
      34    196.32    -0.64618 ( 99.58%)    -0.65137 (  0.42%)    -0.64620
      35    204.85    -0.62286 ( 99.65%)    -0.63877 (  0.35%)    -0.62292
      36    210.90    -0.60700 ( 99.69%)    -0.63015 (  0.31%)    -0.60708
      37    216.28    -0.59333 ( 99.72%)    -0.62269 (  0.28%)    -0.59341
      38    231.44    -0.55686 ( 99.78%)    -0.60261 (  0.22%)    -0.55696
      39    235.33    -0.54798 ( 99.80%)    -0.59768 (  0.20%)    -0.54808
      40    237.95    -0.54208 ( 99.81%)    -0.59440 (  0.19%)    -0.54218
      41    246.57    -0.52324 ( 99.83%)    -0.58386 (  0.17%)    -0.52334
      42    252.10    -0.51157 ( 99.85%)    -0.57728 (  0.15%)    -0.51168
      43    256.69    -0.50213 ( 99.86%)    -0.57194 (  0.14%)    -0.50223
      44    265.17    -0.48523 ( 99.87%)    -0.56231 (  0.13%)    -0.48533
      45    267.53    -0.48065 ( 99.88%)    -0.55969 (  0.12%)    -0.48075
      46    279.28    -0.45857 ( 99.90%)    -0.54695 (  0.10%)    -0.45866
      47    285.75    -0.44693 ( 99.91%)    -0.54017 (  0.09%)    -0.44702
      48    289.66    -0.44005 ( 99.91%)    -0.53614 (  0.09%)    -0.44013
      49    294.53    -0.43166 ( 99.92%)    -0.53121 (  0.08%)    -0.43175
   ------------------------------------------------------------------------

   temp. (K)  partition function   enthalpy   heat capacity  entropy
                                   cal/mol     cal/K/mol   cal/K/mol   J/K/mol
 298.15  VIB  0.179E+24            32637.788    206.936    200.557
         ROT  0.108E+09              888.727      2.981     39.732
         INT  0.193E+32            33526.515    209.916    240.289
         TR   0.763E+27             1481.212      4.968     46.111
         TOT                       35007.7278   214.8844   286.3998  1198.2968

       T/K    H(0)-H(T)+PV         H(T)/Eh          T*S/Eh         G(T)/Eh
   ------------------------------------------------------------------------
    298.15    0.557884E-01    0.953913E+00    0.136078E+00    0.817836E+00
   ------------------------------------------------------------------------

         :::::::::::::::::::::::::::::::::::::::::::::::::::::
         ::                  THERMODYNAMIC                  ::
         :::::::::::::::::::::::::::::::::::::::::::::::::::::
         :: total free energy        -185.682613451833 Eh   ::
         ::.................................................::
         :: total energy             -186.500449129753 Eh   ::
         :: zero point energy           0.898125103713 Eh   ::
         :: G(RRHO) w/o ZPVE           -0.080289425793 Eh   ::
         :: G(RRHO) contrib.            0.817835677920 Eh   ::
         :::::::::::::::::::::::::::::::::::::::::::::::::::::
imag cut-off (cm-1) :    5.00
 found            4  significant imaginary frequencies
 writing imag mode distorted coords to xtbhess.xyz
 for further optimization.

           -------------------------------------------------
          | TOTAL ENERGY             -186.500449129753 Eh   |
          | TOTAL ENTHALPY           -185.546535660686 Eh   |
          | TOTAL FREE ENERGY        -185.682613451833 Eh   |
          | GRADIENT NORM               0.142094947784 Eh/α |
          | HOMO-LUMO GAP               2.501351668384 eV   |
           -------------------------------------------------
########################################################################
[WARNING] Runtime exception occurred
-1- hessian_numhess: Hessian on incompletely optimized geometry!
########################################################################

------------------------------------------------------------------------
 * finished run on 2026/06/25 at 16:53:17.136     
------------------------------------------------------------------------
 total:
 * wall-time:     0 d,  0 h,  0 min, 20.387 sec
 *  cpu-time:     0 d,  0 h,  3 min, 21.794 sec
 * ratio c/w:     9.898 speedup
 SCF:
 * wall-time:     0 d,  0 h,  0 min,  1.143 sec
 *  cpu-time:     0 d,  0 h,  0 min,  1.747 sec
 * ratio c/w:     1.528 speedup
 analytical hessian:
 * wall-time:     0 d,  0 h,  0 min, 19.165 sec
 *  cpu-time:     0 d,  0 h,  3 min, 19.878 sec
 * ratio c/w:    10.429 speedup

normal termination of xtb
Note: The following floating-point exceptions are signalling: IEEE_INVALID_FLAG IEEE_DIVIDE_BY_ZERO IEEE_UNDERFLOW_FLAG IEEE_DENORMAL
