113
 xtb: 6.7.1 (b9eb0ff)
C           -2.25997303408641       -2.23048383704530       -0.33388674387195
C           -0.95158491759803       -2.37386581337957       -0.56235618938896
C           -0.36247964025646       -2.46850019973903       -1.94423602939184
H           -0.40757500287909       -1.47755434441685       -2.42732774477425
H           -0.94449884082738       -3.16171492890093       -2.56538035001597
H            0.67026306383026       -2.79157823309640       -1.90302501677521
C           -0.00208571477183       -2.25898963249842        0.59128080166214
C           -0.35791737460421       -0.96973540373131        1.34699494521932
H            0.00906162873967       -0.13271169291585        0.74313095881908
H            0.16391791200397       -0.97006571295185        2.29495100377653
C           -1.87081367523206       -0.80373297444637        1.60258321895903
O           -2.12315565345303       -0.83299888651342        3.00221014327317
H           -2.04393854365660        0.07265811734042        3.36671114184051
C           -2.68591868374565       -2.02561711661744        1.10145910989427
C           -4.15198505325474       -1.71992213311418        1.40511892835258
H           -4.54126683558835       -0.90166978018809        0.82421230125140
H           -4.77553464116637       -2.58915396133183        1.25832916026399
H           -4.19496527316425       -1.43766864766852        2.46069158305267
C           -2.35301976073612       -3.27498870020036        1.95940813712718
H           -1.67834732514331       -3.01972728890403        2.77100183797664
H           -1.90005741429901       -4.06073462655494        1.34651055395693
H           -3.26346247349661       -3.67779241957571        2.38753680869472
C           -2.35728831166214        0.54882161404833        1.03321084789199
H           -3.27496805181575        0.81042860488912        1.54987902064627
O           -1.34573225357139        1.51348010422838        1.32095713934777
C           -1.21681992259913        1.96667012135402        2.52365455017474
O           -1.82517944511581        1.60895519196421        3.52446843973927
C           -0.18703547833356        3.03258446265755        2.59751511433518
C            0.01798977219290        3.67874924469940        3.81318441151110
C            0.96528201891384        4.67942972072729        3.92480346981695
C            1.71933716796645        5.04114723651901        2.81825379721125
C            1.52530964926730        4.40118079995825        1.60352702103884
C            0.57699954908541        3.39963600698452        1.49353706430007
H            0.41523338697647        2.88849151871493        0.54966386565722
H            2.11710503453164        4.69002099644424        0.74090889350663
H            2.45276253533128        5.83598495409890        2.90233381430833
H            1.10711056693779        5.19245335079796        4.87005057863007
H           -0.59259368342797        3.38446152569406        4.66257192369561
C           -2.55573315037417        0.69985456338541       -0.50892171747305
H           -1.86299959786843        0.01097436757493       -0.99159524334414
C           -2.08455290464539        2.10881862506996       -0.90239711314644
C           -2.56555022986979        3.26786218856191       -0.02699009842196
H           -3.19592004507027        3.01133842725767        0.82155954310247
H           -1.75183185696950        3.92795222359526        0.29735844621702
O           -3.33027841727856        3.84296048809543       -1.11312846199997
C           -2.76017727444348        2.89148447765079       -2.04462223524156
C           -3.82891032316393        2.25259970465995       -2.89665906911814
H           -3.62669285731047        2.39489969852375       -3.95293870876142
H           -4.78174296004175        2.74525108127200       -2.66568584269286
C           -3.97749209211650        0.76512576590825       -2.62097996532117
O           -5.20688393863918        0.40788046845512       -3.21613957747387
H           -5.59913816645598       -0.34096616802713       -2.71589705906019
H           -3.15380785497018        0.23027629045260       -3.09014625565356
C           -3.94799035441696        0.39911994960972       -1.10476756950146
C           -4.30976034436187       -1.07369313359051       -1.24270810904051
O           -5.46062264051189       -1.38201602575622       -1.44181209986039
C           -3.16254234526945       -2.00550187638865       -1.51803896762862
H           -2.55740456052346       -1.42516346055170       -2.22981263191446
O           -3.44805354141148       -3.14137649901267       -2.31307402681013
C           -4.27993774812205       -4.08595048404108       -2.05091196745341
O           -4.45281670501596       -4.95505742657842       -2.89632376214137
C           -5.00255434725962       -4.18165611983660       -0.72374498218092
H           -5.58869813086823       -5.08899065654897       -0.70569552897802
H           -5.63086438967287       -3.32205436812547       -0.58355315533492
H           -4.26427830142625       -4.23037176681910        0.09205635641363
C           -5.08041446586671        1.16272828444965       -0.41933041030450
H           -5.06608491307413        0.99600844064819        0.66574137346524
H           -4.99032855890392        2.23733925460739       -0.58674167304743
H           -6.02588637927539        0.80919202138242       -0.80944415624850
H           -2.00561921739486        3.38248152764777       -2.66111844630067
O           -0.67885945524397        2.17826256084961       -1.04589868606934
C           -0.14733688061663        1.44356431503882       -1.96809399358403
O           -0.71546414266991        0.65209922448662       -2.69872142983643
C            1.34252962257607        1.69421227405168       -2.05731218164152
H            1.75248646473567        1.08610949602905       -2.87248391451897
H            1.81836912281510        1.42803007568584       -1.13610518505763
H            1.53129445665819        2.74751680615305       -2.27221516018757
H           -0.12193648667620       -3.10675517916260        1.26131545664394
O            1.33178933123083       -2.23489468966397        0.12416283708830
C            2.18539750148321       -2.69037521645954        0.97659412816585
O            1.97833866072797       -3.03781412403304        2.13128768975391
C            3.60170492861709       -2.77417739646944        0.44852640890322
O            4.40578987970452       -3.32530046687983        1.47169453039992
H            3.80486849479044       -3.45943461084568        2.22699476826819
H            3.65892240295650       -3.40238417150117       -0.44588943696249
C            4.12759125711188       -1.37081327402833        0.08524934524602
N            3.33019113576790       -0.88098443540185       -1.00739672708933
C            3.77950845233961       -0.54189669786160       -2.23624953537198
O            3.04023614766517       -0.49318516100102       -3.20419007130303
C            5.21196543126235       -0.17785274677292       -2.35876882492153
C            5.87246327530891        0.61500626191189       -1.42641060919614
C            7.19267442446820        0.98024609713157       -1.62867936066292
C            7.86447078404821        0.55831651901796       -2.76475625030099
C            7.20827434633301       -0.21445561551186       -3.71088157815768
C            5.88646629747300       -0.56877683904367       -3.51195377997154
H            5.35758751130123       -1.17492018986601       -4.24303873472204
H            7.73224467346285       -0.55123093984560       -4.60032179356949
H            8.90424037779816        0.82735806518067       -2.91685615816906
H            7.70495242301624        1.59707894467262       -0.89923971555123
H            5.34574378469146        0.96559441000809       -0.54740143174180
H            2.35408087980402       -1.14024309430669       -0.93087255283171
C            4.05914932674676       -0.49598921398504        1.30477141864853
C            3.01499499479031        0.39211737081001        1.51473269805068
C            2.94228537373318        1.12727157736496        2.68593591378969
C            3.91504874985090        0.97809998127112        3.66103880081531
C            4.95936486837654        0.08862010104016        3.46235120133166
C            5.02666647357620       -0.64489181744064        2.29028222996061
H            5.81987074403605       -1.35873143345723        2.14271127936752
H            5.70641010885642       -0.03940625479093        4.23889688119630
H            3.84457752150949        1.55110682297000        4.58848915784079
H            2.11408910217833        1.81900215347118        2.84546424464614
H            2.25115647535677        0.51709350938010        0.75504351061018
H            5.16241649544663       -1.45118397205794       -0.23381175255055
