24
 xtb: 6.7.1 (b9eb0ff)
C           -3.27224054361464       -1.05528020094083        0.00767971382199
N           -2.27559458545742       -0.01975224468718       -0.00286651018076
C           -0.91313001892731       -0.20498252533795        0.00999237122997
C           -0.37077123628487        1.07315511753797        0.00452031525816
N           -1.34770178632870        2.00581407417630       -0.01311187517305
C           -2.46626112214060        1.31248213108273       -0.01489098115123
H           -3.44188296575496        1.76090109937034       -0.01595237645744
N            0.97178989972850        1.28310832369344        0.00097494908706
C            1.82857358110486        0.20333970171759       -0.00779800485673
O            3.03272144386739        0.34131456058827       -0.02470383939672
N            1.25304510374758       -1.06243752829860       -0.00966622473252
C           -0.10558804224922       -1.38602631909281        0.01065949594324
O           -0.49976290202411       -2.53891030000762        0.02518681011861
C            2.20241963617642       -2.16321206299297       -0.02365349896925
H            1.63215663159084       -3.08957610400408        0.01420589742869
H            2.81588220656185       -2.11708355745164       -0.90863065319710
H            2.85354780325416       -2.09290399056985        0.86074886130542
C            1.50579711918165        2.62672993172299        0.03490788435382
H            0.76509163838492        3.29820602568043       -0.40782982627132
H            1.74945537795832        2.92623147972103        1.05010851665663
H            2.44313757745872        2.62840322761969       -0.57418963735120
H           -2.75518217159951       -2.01944456456088       -0.03348420723788
H           -3.92522508411436       -0.96136583670357       -0.86235497506472
H           -3.87020328144099       -1.00556002752174        0.91268180487524
