24
 xtb: 6.7.1 (41d4ee3)
C           -3.26776264551282       -1.05897916388580        0.00998893610495
N           -2.27602842314793       -0.01828607121905        0.00261873812241
C           -0.91367733993908       -0.20347429826453        0.00731561399563
C           -0.36986302457762        1.07431263713936        0.00445701257269
N           -1.34778437799336        2.00662526205178       -0.00421909973811
C           -2.46768395194366        1.31337665653793       -0.00495588236106
H           -3.44241625741693        1.76112580600963       -0.01167570870527
N            0.97269170390666        1.28312242454757       -0.00571182256171
C            1.82804025220281        0.20189893424287       -0.00455291203008
O            3.03203901704267        0.33856078015619       -0.01312770518791
N            1.25193192075923       -1.06289695523885       -0.00821503621333
C           -0.10650434776817       -1.38477827339671        0.00334956132631
O           -0.49987728512166       -2.53749746949067        0.00746777509136
C            2.20124100003226       -2.16400969479367       -0.01563562165271
H            1.63170478563524       -3.08981246644262        0.01529095028595
H            2.81757358684527       -2.11729683474101       -0.90496930328685
H            2.85127139513092       -2.09324401316860        0.86454446174092
C            1.50589023351300        2.62810694031752        0.01970843923202
H            0.76534811507809        3.29685989270006       -0.41701217728440
H            1.74634652465678        2.93073090042513        1.04565316168658
H            2.44449339161987        2.62874935714980       -0.57708464048434
H           -2.75167624896932       -2.01974026938756       -0.01722188280979
H           -3.91289967580296       -0.97368091678176       -0.87081702897677
H           -3.88012068036274       -0.99822656707207        0.90500256564248
