113
 xtb: 6.7.1 (b9eb0ff)
C           -2.25997303995345       -2.23048383725993       -0.33388673601645
C           -0.95158492492745       -2.37386581634216       -0.56235618787726
C           -0.36247965528371       -2.46850021356607       -1.94423603030183
H           -0.40757500787748       -1.47755434943707       -2.42732774692840
H           -0.94449884635690       -3.16171493402055       -2.56538034785367
H            0.67026305945938       -2.79157823735193       -1.90302501779448
C           -0.00208571538768       -2.25898962838120        0.59128079714286
C           -0.35791737160401       -0.96973539657800        1.34699493703870
H            0.00906162865420       -0.13271169162809        0.74313095472091
H            0.16391791454930       -0.97006570958314        2.29495100048651
C           -1.87081367079865       -0.80373296608104        1.60258321856480
O           -2.12315564146896       -0.83299887143432        3.00221014384450
H           -2.04393853785738        0.07265812126172        3.36671114132803
C           -2.68591868193801       -2.02561711039497        1.10145911872916
C           -4.15198504977593       -1.71992212600066        1.40511894373222
H           -4.54126683520504       -0.90166977799106        0.82421230629077
H           -4.77553464047588       -2.58915395917809        1.25832916548790
H           -4.19496527065058       -1.43766864560489        2.46069158758944
C           -2.35301975473572       -3.27498869120302        1.95940814877281
H           -1.67834732342722       -3.01972728500855        2.77100184098905
H           -1.90005741210912       -4.06073462415700        1.34651055793593
H           -3.26346247137879       -3.67779241738341        2.38753681249659
C           -2.35728830976617        0.54882162090417        1.03321084490681
H           -3.27496805012560        0.81042860788942        1.54987902124207
O           -1.34573224799920        1.51348011323415        1.32095712195462
C           -1.21681990303100        1.96667012990931        2.52365453314814
O           -1.82517941183414        1.60895520509331        3.52446842801996
C           -0.18703545573208        3.03258446866053        2.59751508787148
C            0.01798980551305        3.67874924857011        3.81318438457210
C            0.96528205688162        4.67942972052079        3.92480343805465
C            1.71933720056415        5.04114723405931        2.81825376100505
C            1.52530967043115        4.40118080033242        1.60352698505695
C            0.57699956460151        3.39963601203416        1.49353703277741
H            0.41523338858362        2.88849152102430        0.54966385650350
H            2.11710503944440        4.69002099623236        0.74090888213355
H            2.45276254592063        5.83598495242131        2.90233380276855
H            1.10711058010619        5.19245335035514        4.87005056929218
H           -0.59259367250208        3.38446152715592        4.66257191693003
C           -2.55573315756622        0.69985456383315       -0.50892171971691
H           -1.86299960068767        0.01097436711324       -0.99159524423967
C           -2.08455291509519        2.10881862442350       -0.90239712401312
C           -2.56555023617308        3.26786219079526       -0.02699011083734
H           -3.19592004559342        3.01133842854406        0.82155954069304
H           -1.75183185846235        3.92795222466572        0.29735844087135
O           -3.33027843114019        3.84296048607831       -1.11312847442777
C           -2.76017729128983        2.89148447231342       -2.04462224531589
C           -3.82891034381855        2.25259969466658       -2.89665907104858
H           -3.62669286493910        2.39489969453865       -3.95293870977604
H           -4.78174296590768        2.74525107818362       -2.66568584239151
C           -3.97749210841568        0.76512575662640       -2.62097996054815
O           -5.20688395841294        0.40788045127700       -3.21613956644425
H           -5.59913817098099       -0.34096617156772       -2.71589705474499
H           -3.15380785970777        0.23027628776126       -3.09014625434603
C           -3.94799036421987        0.39911994730892       -1.10476756334535
C           -4.30976035480892       -1.07369313632272       -1.24270809443534
O           -5.46062265410027       -1.38201602908209       -1.44181207289390
C           -3.16254235761877       -2.00550188087556       -1.51803895586983
H           -2.55740456511289       -1.42516346277000       -2.22981263004431
O           -3.44805356108472       -3.14137650752940       -2.31307400666463
C           -4.27993777245801       -4.08595048471892       -2.05091194728526
O           -4.45281674268511       -4.95505742594429       -2.89632373866114
C           -5.00255436425447       -4.18165611830905       -0.72374495815623
H           -5.58869813666910       -5.08899065552653       -0.70569552109432
H           -5.63086439347279       -3.32205436707905       -0.58355314697210
H           -4.26427830475899       -4.23037176724892        0.09205636191157
C           -5.08041447317022        1.16272828461658       -0.41933040280204
H           -5.06608491478063        0.99600844095280        0.66574137568611
H           -4.99032856076625        2.23733925458279       -0.58674167116658
H           -6.02588638171276        0.80919202164910       -0.80944415355501
H           -2.00561922333585        3.38248152556385       -2.66111845095650
O           -0.67885946848464        2.17826256126680       -1.04589870751240
C           -0.14733689268404        1.44356430385911       -1.96809400331297
O           -0.71546415603423        0.65209920356509       -2.69872143326221
C            1.34252961093400        1.69421226144223       -2.05731219073175
H            1.75248646171125        1.08610949402308       -2.87248391825393
H            1.81836911888853        1.42803006948321       -1.13610518804468
H            1.53129445399204        2.74751680290732       -2.27221516003181
H           -0.12193648539203       -3.10675517719563        1.26131545657620
O            1.33178932794846       -2.23489468629232        0.12416282273239
C            2.18539749998999       -2.69037523771514        0.97659410204156
O            1.97833866285344       -3.03781416610042        2.13128765514799
C            3.60170492547501       -2.77417741535523        0.44852637781234
O            4.40578987710678       -3.32530050685882        1.47169448393057
H            3.80486849437639       -3.45943462442276        2.22699475615636
H            3.65892240145438       -3.40238417293000       -0.44588944885839
C            4.12759125651541       -1.37081328856629        0.08524933616887
N            3.33019114303917       -0.88098443856897       -1.00739673714178
C            3.77950847138733       -0.54189667562295       -2.23624953326279
O            3.04023618474251       -0.49318512703722       -3.20419007977533
C            5.21196544912685       -0.17785271093361       -2.35876879726259
C            5.87246327527740        0.61500628899743       -1.42641056146565
C            7.19267442536169        0.98024613426468       -1.62867928965984
C            7.86447080351117        0.55831657493375       -2.76475617538031
C            7.20827438362211       -0.21445555073062       -3.71088152303692
C            5.88646633395848       -0.56877678399744       -3.51195374816514
H            5.35758752578298       -1.17492017218302       -4.24303872976287
H            7.73224468843103       -0.55123091706162       -4.60032177664784
H            8.90424038370400        0.82735808338044       -2.91685613108220
H            7.70495241934352        1.59707895345670       -0.89923969054477
H            5.34574378067824        0.96559441350213       -0.54740141854918
H            2.35408088203575       -1.14024309727967       -0.93087255945631
C            4.05914931922916       -0.49598923989076        1.30477141750897
C            3.01499499292000        0.39211735283632        1.51473269101362
C            2.94228536807378        1.12727155741696        2.68593590767172
C            3.91504873508146        0.97809995118505        3.66103880219006
C            4.95936484713902        0.08862006188625        3.46235120925828
C            5.02666645597168       -0.64489185479706        2.29028223685343
H            5.81987073777434       -1.35873144590239        2.14271128265235
H            5.70641010070892       -0.03940626824541        4.23889688514068
H            3.84457751678803        1.55110681414769        4.58848915829024
H            2.11408910186780        1.81900214967229        2.84546424113762
H            2.25115647713166        0.51709350658485        0.75504350666347
H            5.16241649590291       -1.45118397505433       -0.23381175364299
