113
 xtb: 6.7.1 (b9eb0ff)
C           -2.25997306839989       -2.23048384117078       -0.33388671749737
C           -0.95158495838733       -2.37386582908428       -0.56235619100877
C           -0.36247971984108       -2.46850025602104       -1.94423604433232
H           -0.40757503215079       -1.47755436464032       -2.42732775592227
H           -0.94449886857107       -3.16171495082537       -2.56538034331212
H            0.67026304148079       -2.79157824819478       -1.90302502623508
C           -0.00208572278582       -2.25898961736770        0.59128077157424
C           -0.35791736473589       -0.96973537375007        1.34699489654652
H            0.00906162742459       -0.13271168760310        0.74313093702388
H            0.16391792298514       -0.97006569803404        2.29495098514725
C           -1.87081365803881       -0.80373294362584        1.60258320982669
O           -2.12315559885111       -0.83299883794835        3.00221013773935
H           -2.04393851790852        0.07265812921059        3.36671113979133
C           -2.68591868440751       -2.02561709062987        1.10145914006294
C           -4.15198504508392       -1.71992209411384        1.40511898943141
H           -4.54126683588140       -0.90166976956586        0.82421231941557
H           -4.77553464175157       -2.58915394915678        1.25832918496937
H           -4.19496526279601       -1.43766863350749        2.46069160041418
C           -2.35301974773275       -3.27498866668686        1.95940817356372
H           -1.67834732138458       -3.01972727576690        2.77100184742308
H           -1.90005740879700       -4.06073461642671        1.34651056543721
H           -3.26346246824868       -3.67779241223875        2.38753682015433
C           -2.35728830637319        0.54882163943734        1.03321083232175
H           -3.27496804576088        0.81042861489418        1.54987902254765
O           -1.34573223636687        1.51348013999557        1.32095706628207
C           -1.21681983285663        1.96667014239817        2.52365448238742
O           -1.82517928666290        1.60895522244140        3.52446839838972
C           -0.18703537289129        3.03258447085891        2.59751500975485
C            0.01798993801960        3.67874922243321        3.81318431417185
C            0.96528220924950        4.67942967570507        3.92480335965501
C            1.71933732621881        5.04114719725881        2.81825366715919
C            1.52530974303933        4.40118079605700        1.60352688231420
C            0.57699961293871        3.39963602944095        1.49353693615276
H            0.41523338915562        2.88849153421102        0.54966382624131
H            2.11710505427473        4.69002099781677        0.74090884909178
H            2.45276258760868        5.83598493691054        2.90233377426530
H            1.10711063509063        5.19245333140956        4.87005054798292
H           -0.59259362807604        3.38446151732984        4.66257190007351
C           -2.55573317656939        0.69985455997676       -0.50892173256163
H           -1.86299960797674        0.01097436384085       -0.99159524786526
C           -2.08455294222620        2.10881861739065       -0.90239716325967
C           -2.56555025844667        3.26786219089197       -0.02699015617697
H           -3.19592004833538        3.01133842975362        0.82155953063866
H           -1.75183186496047        3.92795222714795        0.29735842268254
O           -3.33027847579524        3.84296046815876       -1.11312852417585
C           -2.76017733480761        2.89148445037131       -2.04462228503345
C           -3.82891038970837        2.25259965556017       -2.89665909500952
H           -3.62669288026853        2.39489967921601       -3.95293871761331
H           -4.78174297957837        2.74525106617325       -2.66568584972419
C           -3.97749214081283        0.76512572033511       -2.62097996060458
O           -5.20688399170534        0.40788038356905       -3.21613956114773
H           -5.59913817966893       -0.34096618466213       -2.71589704789042
H           -3.15380786740711        0.23027627735167       -3.09014625188896
C           -3.94799038966499        0.39911993930951       -1.10476755712111
C           -4.30976039385378       -1.07369314362341       -1.24270805379650
O           -5.46062270698004       -1.38201602941619       -1.44181198933762
C           -3.16254240975642       -2.00550190255341       -1.51803892224781
H           -2.55740458340281       -1.42516347467944       -2.22981262739953
O           -3.44805365169575       -3.14137654745401       -2.31307393527260
C           -4.27993786539390       -4.08595050053793       -2.05091185917066
O           -4.45281687765983       -4.95505745054694       -2.89632362567076
C           -5.00255443394836       -4.18165611345765       -0.72374485775203
H           -5.58869816187928       -5.08899065079915       -0.70569548770026
H           -5.63086440776998       -3.32205436171328       -0.58355311474733
H           -4.26427832027194       -4.23037176936893        0.09205638667575
C           -5.08041448685390        1.16272829667071       -0.41933040002407
H           -5.06608491638155        0.99600844921815        0.66574137726492
H           -4.99032856314445        2.23733925705231       -0.58674167518598
H           -6.02588638732835        0.80919202542274       -0.80944414910064
H           -2.00561923866333        3.38248151899396       -2.66111846602611
O           -0.67885950307928        2.17826256230425       -1.04589877453591
C           -0.14733692131711        1.44356427640257       -1.96809403834758
O           -0.71546418382741        0.65209914056378       -2.69872144584433
C            1.34252957875849        1.69421225060739       -2.05731223831052
H            1.75248645654220        1.08610948110058       -2.87248392242016
H            1.81836911006983        1.42803008496771       -1.13610519698947
H            1.53129443896401        2.74751679725373       -2.27221519166406
H           -0.12193648378440       -3.10675516987524        1.26131545481694
O            1.33178931054749       -2.23489468503407        0.12416276284639
C            2.18539749036317       -2.69037529117769        0.97659401707115
O            1.97833866400499       -3.03781426471748        2.13128754888560
C            3.60170491237138       -2.77417746011081        0.44852628233096
O            4.40578986116822       -3.32530061845757        1.47169434152241
H            3.80486849110682       -3.45943465987132        2.22699471981066
H            3.65892239718775       -3.40238417203081       -0.44588948610975
C            4.12759124914817       -1.37081331610263        0.08524931814863
N            3.33019115935251       -0.88098442461662       -1.00739675384331
C            3.77950852469074       -0.54189659934953       -2.23624951698265
O            3.04023629180230       -0.49318502009328       -3.20419009430587
C            5.21196549893525       -0.17785259612453       -2.35876870751185
C            5.87246327341366        0.61500637543870       -1.42641041084411
C            7.19267442500460        0.98024625321371       -1.62867907288055
C            7.86447085571199        0.55831675641775       -2.76475595096038
C            7.20827448716275       -0.21445534053655       -3.71088135833445
C            5.88646643633917       -0.56877660592286       -3.51195364978086
H            5.35758756660418       -1.17492011476451       -4.24303871412331
H            7.73224472997961       -0.55123084267234       -4.60032172716135
H            8.90424039924508        0.82735814312816       -2.91685605062082
H            7.70495240795812        1.59707898156628       -0.89923961446350
H            5.34574376865761        0.96559442474073       -0.54740137611534
H            2.35408088677829       -1.14024309789013       -0.93087257423790
C            4.05914929298154       -0.49598930554420        1.30477142716166
C            3.01499499070352        0.39211731986965        1.51473268263417
C            2.94228536139831        1.12727152012378        2.68593590205696
C            3.91504870064177        0.97809987683731        3.66103881850755
C            4.95936478553454        0.08861995104796        3.46235124518369
C            5.02666639832938       -0.64489196247189        2.29028227070314
H            5.81987071575542       -1.35873148412920        2.14271129663533
H            5.70641007695672       -0.03940630787348        4.23889690018720
H            3.84457750725510        1.55110679323052        4.58848916267816
H            2.11408910547444        1.81900214647278        2.84546423431002
H            2.25115648363860        0.51709350650016        0.75504349862631
H            5.16241649568812       -1.45118397875967       -0.23381175426960
