113
 xtb: 6.7.1 (b9eb0ff)
C           -2.25868379158690       -2.23215757772022       -0.33793787034945
C           -0.95018729873967       -2.37490546962061       -0.56648849875940
C           -0.36044014390014       -2.46356514814693       -1.94841517573446
H           -0.40777569404232       -1.47574512660249       -2.42770922723156
H           -0.94331815374292       -3.16017506897072       -2.56729392548830
H            0.67113106967823       -2.78927399827298       -1.90446383650550
C           -0.00136744907741       -2.26499302653452        0.58812407731724
C           -0.35613770279180       -0.97684067812725        1.34620106451195
H            0.00998392884320       -0.13459556906703        0.74336194653066
H            0.16425344877366       -0.97277573290015        2.29482104902648
C           -1.86888106000477       -0.80984452773911        1.60105271062060
O           -2.12134888494663       -0.84140619000753        3.00036931174124
H           -2.04350597579444        0.07046422566750        3.36646638148284
C           -2.68491729408710       -2.03018727845351        1.09781717113123
C           -4.15073955310907       -1.72343661974796        1.40179511022373
H           -4.54076651347620       -0.90262484810353        0.82323334809336
H           -4.77536087111380       -2.59005349360926        1.25745117910810
H           -4.19444838894697       -1.43864957728346        2.45973411431000
C           -2.35333721115291       -3.28120902580545        1.95383002866937
H           -1.67829079208070       -3.02209502541311        2.76944298178207
H           -1.90048261543183       -4.06242885904030        1.34450530944376
H           -3.26364229353236       -3.67950382864466        2.38582870574132
C           -2.35377497705518        0.54379212649082        1.03332866728410
H           -3.27392296639344        0.80895420889658        1.54999218075228
O           -1.34093131541209        1.50604862704356        1.32385634563357
C           -1.21720348660296        1.96128044456812        2.52625698435362
O           -1.82746168732074        1.60119541026525        3.52572830887375
C           -0.19071152544862        3.03026331344409        2.60204042958111
C            0.00973257203008        3.67808566591300        3.81756054180543
C            0.95326960034404        4.68228067946217        3.92989321714478
C            1.70797201911353        5.04602512330114        2.82443057575026
C            1.51855136200733        4.40437330003084        1.60992214575651
C            0.57420210907006        3.39921172800071        1.49926924166660
H            0.41544689360850        2.88794898298388        0.55137836978881
H            2.11522857069643        4.69135138646830        0.74296205608466
H            2.44860610195134        5.83816318744620        2.90429841387558
H            1.10264995440902        5.19363149766515        4.87147746333287
H           -0.59504104615628        3.38386231997178        4.66364758904507
C           -2.55224031449972        0.69825066976647       -0.50843814774141
H           -1.86210803562619        0.01077287660022       -0.99201569251270
C           -2.08009810066384        2.10778461029344       -0.89829677540009
C           -2.56087308396804        3.26505719803449       -0.02038654706286
H           -3.19456390750129        3.01000351543525        0.82331186067507
H           -1.75050521163753        3.92696741981102        0.29966597833060
O           -3.32499258842423        3.84234155540894       -1.10397960306302
C           -2.75528659747789        2.89330510945472       -2.03880039185161
C           -3.82382029568207        2.25709608736299       -2.89302304894078
H           -3.62474750278745        2.39653932625424       -3.95176510469922
H           -4.78011363417369        2.74693301083573       -2.66478242948487
C           -3.97542430040331        0.76950061980884       -2.61971853166774
O           -5.20625989610611        0.41728246036941       -3.21355634218402
H           -5.59905010422891       -0.33883676547474       -2.71565856858006
H           -3.15374723219635        0.23128119874238       -3.09041701878059
C           -3.94505285239164        0.40002324926679       -1.10434254241634
C           -4.30780626997299       -1.07230571924237       -1.24532844421019
O           -5.45841382634007       -1.37936302341966       -1.44620754464601
C           -3.16088118665923       -2.00403279935828       -1.52180857228752
H           -2.55683056112108       -1.42434535940809       -2.23051230431257
O           -3.44625535349191       -3.13760657043738       -2.32023801986576
C           -4.27614475928010       -4.08476537908213       -2.05768167980842
O           -4.44644348490395       -4.95371167612214       -2.90446393420468
C           -4.99960780846320       -4.18157721472396       -0.73105714657388
H           -5.58802203075533       -5.08885009397215       -0.70818203164673
H           -5.62983512009027       -3.32191968082536       -0.58550147856856
H           -4.26363074336452       -4.23073095916070        0.09009496992166
C           -5.07663684750514        1.16303885099011       -0.41674257268461
H           -5.06451981062245        0.99603776970946        0.66647191142929
H           -4.98942837480436        2.23744751070555       -0.58599142295537
H           -6.02493376212727        0.80923541952839       -0.80832081406282
H           -2.00414383804814        3.38349647055547       -2.65897571506998
O           -0.67366515792575        2.17536998317679       -1.04157293284550
C           -0.14674288198431        1.44910952510059       -1.97290441347239
O           -0.71794952930781        0.66320468563191       -2.70671781946649
C            1.34258097857579        1.70166711014458       -2.06679634749436
H            1.75253620348319        1.08596804338244       -2.87344567684530
H            1.81897840361999        1.43411584101507       -1.13807605898300
H            1.53026564120814        2.74911507184061       -2.27898440451704
H           -0.12233646528520       -3.10892493068604        1.25973452492039
O            1.33342852352056       -2.24265972625951        0.12308262068648
C            2.18619061053803       -2.68536624588729        0.98241562684671
O            1.97674526112349       -3.02471015257840        2.13974921924111
C            3.60418156225653       -2.76717295810903        0.45895672422180
O            4.40699424078982       -3.31081615467108        1.48841199230868
H            3.80494387402298       -3.45409834155234        2.23133638199136
H            3.66082936010325       -3.40130247069005       -0.44210095845029
C            4.12770753610250       -1.36390362151722        0.09108245903931
N            3.32753552603037       -0.87697908332764       -1.00055836100113
C            3.77341956795610       -0.54777429377488       -2.23377923427547
O            3.02899598758137       -0.50412713202246       -3.19829856758301
C            5.20638326713495       -0.18825586836716       -2.36343286950125
C            5.87117231659866        0.60894879818412       -1.43777307638416
C            7.19158132682267        0.97010064904250       -1.64579524902380
C            7.85919828565293        0.53996854544666       -2.78126131216062
C            7.19869145328330       -0.23710274531182       -3.72080524102946
C            5.87674017902477       -0.58771718809506       -3.51601416239278
H            5.35386632839573       -1.18135788457860       -4.24277963672312
H            7.72856663861250       -0.55950044653694       -4.60309547384891
H            8.90273608133577        0.82119491794565       -2.92297173927184
H            7.70562670621448        1.59503368911527       -0.90566472406575
H            5.34624259104155        0.96566866807935       -0.55089821525117
H            2.35322799305278       -1.13832117981789       -0.92760331120512
C            4.06046598320493       -0.48618807830909        1.30843624897030
C            3.01496840377697        0.40026717703404        1.51862907853751
C            2.94272348955258        1.13647697592859        2.68918296987252
C            3.91690790930540        0.99001570299639        3.66324860652255
C            4.96279162955440        0.10258807766315        3.46404110748729
C            5.02987520054718       -0.63191622829361        2.29258059231677
H            5.82113498590125       -1.35456079665480        2.14325069171691
H            5.70771270502021       -0.03475859480354        4.23917754795560
H            3.84508630023218        1.55469630897531        4.58904258656818
H            2.11387414117841        1.82120472273502        2.84662091250147
H            2.25083113191136        0.51895154132674        0.75638802207976
H            5.16228415428026       -1.44917061833480       -0.23261542446373
