113
 xtb: 6.7.1 (b9eb0ff)
C           -2.26259285613777       -2.23018825074469       -0.34214614828159
C           -0.95540887870096       -2.37528909605700       -0.57800486458699
C           -0.37209856684132       -2.46520783479497       -1.96237031493975
H           -0.41126511816796       -1.47614294249922       -2.43164310874061
H           -0.94766873169883       -3.16031071269694       -2.57080758710568
H            0.66767833102850       -2.79014640910312       -1.90966124924736
C           -0.00041456870719       -2.26343950381266        0.57156876895718
C           -0.34662039236752       -0.96834994236188        1.32130059664575
H            0.01039058248313       -0.13347961401549        0.73280695517390
H            0.17020941017010       -0.96756057068980        2.28584950047360
C           -1.85655732712401       -0.80321020228432        1.59179052392739
O           -2.08868649929344       -0.83369612947711        2.99307591978692
H           -2.03858337491112        0.07286817944145        3.36380229849656
C           -2.67852481052278       -2.02360947334915        1.09663800650804
C           -4.14115673757330       -1.71226133867555        1.41241143739301
H           -4.53859565130666       -0.89861030078519        0.82785905542744
H           -4.77394514988325       -2.58599745962851        1.26150592510481
H           -4.18891306362099       -1.43598016393175        2.46310608077334
C           -2.34496992086401       -3.27383931884571        1.95344926399889
H           -1.67511180223033       -3.01958873663809        2.76863357509216
H           -1.89876898063652       -4.06074187089652        1.34446372635171
H           -3.26089427341855       -3.67698544803361        2.38677904414755
C           -2.34812344431491        0.54962535843860        1.02855294166725
H           -3.27136613134962        0.81028724270341        1.55040030996281
O           -1.33372113899156        1.51345355772729        1.31414481350799
C           -1.21819924231283        1.97232105656477        2.51687384476405
O           -1.83642187712968        1.61668061408601        3.51116884631853
C           -0.19062040700352        3.03933799311587        2.59556783170640
C            0.02211141884446        3.67216408503544        3.81702750589502
C            0.96666801525808        4.67517913526523        3.93191488888107
C            1.70910061908849        5.05315820957169        2.82264803328008
C            1.50742732914216        4.42612127630273        1.60218863641868
C            0.56323821477189        3.42116836674552        1.48923455157716
H            0.40983346961520        2.89733746359023        0.54716150652390
H            2.10921695854312        4.70093870838111        0.73987867745087
H            2.44876991611757        5.84032431885392        2.90418451668639
H            1.10952582452445        5.18804349207633        4.87345239926080
H           -0.58893086289720        3.37911630808365        4.66420834810870
C           -2.55557911847835        0.70315831825949       -0.51156593431866
H           -1.86437944746210        0.01160127341775       -0.99394666269902
C           -2.08419244442019        2.11103526438374       -0.90712282099767
C           -2.56134670340641        3.27070221226463       -0.03057290267206
H           -3.19412641395997        3.01218926648934        0.82098353976202
H           -1.75043479971482        3.92877294184249        0.29579764421099
O           -3.32793993550700        3.84689058259587       -1.11503136899083
C           -2.76355775506329        2.89287560027996       -2.04743346465154
C           -3.83806053018604        2.25542795181717       -2.89371943886850
H           -3.63027448302614        2.39469141931337       -3.95238780048636
H           -4.78350926526656        2.74749474130057       -2.66414731293696
C           -3.99234910939517        0.76940038134719       -2.61351709605354
O           -5.23158752873809        0.41680459230689       -3.19442262838094
H           -5.60463190121446       -0.33835343834157       -2.70933772590345
H           -3.16010774515862        0.23017189568758       -3.08986788520042
C           -3.95241554355616        0.40548690516319       -1.09752764163414
C           -4.31649621959157       -1.06688719204962       -1.23196363219900
O           -5.47024164167870       -1.37616223601041       -1.41345667162757
C           -3.17149661738063       -1.99753355309800       -1.52065303346935
H           -2.56086871342028       -1.42209670245628       -2.23058378455686
O           -3.47292773569925       -3.12140631966813       -2.32567910732764
C           -4.25974504334510       -4.09572430281284       -2.03594305302432
O           -4.42060701936474       -4.97757897539672       -2.86901031721765
C           -4.96750218582639       -4.19033792599836       -0.70144458108430
H           -5.57532446888843       -5.09358332464753       -0.69519613106841
H           -5.62327264309142       -3.32615878923338       -0.57860625817113
H           -4.25235627992915       -4.22773112455166        0.09707944108994
C           -5.07877272055102        1.17152101102429       -0.40503296328445
H           -5.06293442027783        0.99987818196382        0.67007525736840
H           -4.99046437141694        2.23968546274891       -0.58418373449236
H           -6.02636923279543        0.81113647486923       -0.80246939070372
H           -2.00735937953013        3.38233851682513       -2.66329836606282
O           -0.67889913626945        2.17774434454694       -1.05659662864026
C           -0.15190735548195        1.44054333580845       -1.97799193457803
O           -0.72598163320278        0.65427620126049       -2.71196770958352
C            1.33994258173268        1.68068630881554       -2.06307354277051
H            1.75157611842809        1.08128979628731       -2.87354254158584
H            1.81573287977723        1.42329529603507       -1.13698578803572
H            1.53301706144613        2.74321513488223       -2.27360389200687
H           -0.12277532829717       -3.10677754928745        1.25687764538414
O            1.33347429603706       -2.25290683351628        0.10057872927072
C            2.18379302672866       -2.70179425527475        0.96157998328283
O            1.97214880312510       -3.04799972682056        2.11420495956426
C            3.60289253707624       -2.78160261576174        0.44101738226102
O            4.40136751011373       -3.34070150342800        1.46357899157375
H            3.80297153376792       -3.46277293121609        2.22448048925365
H            3.66128968372451       -3.40235734582882       -0.44941526168204
C            4.12743280523683       -1.37402133033163        0.09098460380420
N            3.33353904458596       -0.87918807030715       -1.00162816734768
C            3.78603825236241       -0.54682881528911       -2.23144698733734
O            3.05050104287394       -0.50335065607738       -3.20092350858088
C            5.21820391572288       -0.18146613065394       -2.35111180701222
C            5.87301784266626        0.61844914024065       -1.42072862658948
C            7.19216660358501        0.98836603344253       -1.62178401303067
C            7.86831011131873        0.56360542515716       -2.75427047796372
C            7.21807231010218       -0.21764762529746       -3.69753628954383
C            5.89727186655020       -0.57659360850019       -3.50008709161289
H            5.36197342998427       -1.17907655818699       -4.23899294865634
H            7.73614354106604       -0.55288661758476       -4.59556857155996
H            8.90506625796334        0.83008538313575       -2.91365286475882
H            7.70359907749586        1.60115217356479       -0.89785911051093
H            5.34482629061534        0.96688880398174       -0.54650736320212
H            2.35501615657667       -1.14009647838107       -0.93011001295492
C            4.05261413850818       -0.50390906220255        1.31350474113052
C            3.01918447117829        0.39953653822430        1.51039024194513
C            2.94365745730811        1.13806955247498        2.67945537613556
C            3.90204770885783        0.97552575411196        3.66645957121453
C            4.93484875557072        0.06948308227839        3.48157738587849
C            5.00568651069684       -0.66637586272433        2.31109316706764
H            5.81135167621600       -1.36835625623395        2.15176250188589
H            5.69612849288969       -0.04795633843567        4.24715703296733
H            3.84044193133873        1.55120813645464        4.58949591574581
H            2.11700702739031        1.82590786140714        2.84027499149976
H            2.25555001384438        0.52240459978039        0.75117949357542
H            5.16283152425118       -1.45083100129455       -0.23107535955485
