      -----------------------------------------------------------      
     |                   =====================                   |     
     |                           x T B                           |     
     |                   =====================                   |     
     |                         S. Grimme                         |     
     |          Mulliken Center for Theoretical Chemistry        |     
     |                    University of Bonn                     |     
      -----------------------------------------------------------      

   * xtb version 6.7.1 (b9eb0ff) compiled by 'polt@simurgh' on 2026-06-25

   xtb is free software: you can redistribute it and/or modify it under
   the terms of the GNU Lesser General Public License as published by
   the Free Software Foundation, either version 3 of the License, or
   (at your option) any later version.
   
   xtb is distributed in the hope that it will be useful,
   but WITHOUT ANY WARRANTY; without even the implied warranty of
   MERCHANTABILITY or FITNESS FOR A PARTICULAR PURPOSE.  See the
   GNU Lesser General Public License for more details.
   
   Cite this work as:
   * C. Bannwarth, E. Caldeweyher, S. Ehlert, A. Hansen, P. Pracht,
     J. Seibert, S. Spicher, S. Grimme, WIREs Comput. Mol. Sci., 2020, 11,
     e01493. DOI: 10.1002/wcms.1493
   
   for GFN2-xTB:
   * C. Bannwarth, S. Ehlert and S. Grimme., J. Chem. Theory Comput., 2019,
     15, 1652-1671. DOI: 10.1021/acs.jctc.8b01176
   for GFN1-xTB:
   * S. Grimme, C. Bannwarth, P. Shushkov, J. Chem. Theory Comput., 2017,
     13, 1989-2009. DOI: 10.1021/acs.jctc.7b00118
   for GFN0-xTB:
   * P. Pracht, E. Caldeweyher, S. Ehlert, S. Grimme, ChemRxiv, 2019, preprint.
     DOI: 10.26434/chemrxiv.8326202.v1
   for GFN-FF:
   * S. Spicher and S. Grimme, Angew. Chem. Int. Ed., 2020, 59, 15665-15673.
     DOI: 10.1002/anie.202004239
   
   for ALPB and GBSA implicit solvation:
   * S. Ehlert, M. Stahn, S. Spicher, S. Grimme, J. Chem. Theory Comput.,
     2021, 17, 4250-4261. DOI: 10.1021/acs.jctc.1c00471
   
   for ddCOSMO and CPCM-X implicit solvation:
   * M. Stahn, S. Ehlert, S. Grimme, J. Phys. Chem. A,
     2023, XX, XXXX-XXXX. DOI: 10.1021/acs.jpca.3c04382
   
   for DFT-D4:
   * E. Caldeweyher, C. Bannwarth and S. Grimme, J. Chem. Phys., 2017,
     147, 034112. DOI: 10.1063/1.4993215
   * E. Caldeweyher, S. Ehlert, A. Hansen, H. Neugebauer, S. Spicher,
     C. Bannwarth and S. Grimme, J. Chem. Phys., 2019, 150, 154122.
     DOI: 10.1063/1.5090222
   * E. Caldeweyher, J.-M. Mewes, S. Ehlert and S. Grimme, Phys. Chem. Chem. Phys.
     2020, 22, 8499-8512. DOI: 10.1039/D0CP00502A
   
   for sTDA-xTB:
   * S. Grimme and C. Bannwarth, J. Chem. Phys., 2016, 145, 054103.
     DOI: 10.1063/1.4959605
   
   in the mass-spec context:
   * V. Asgeirsson, C. Bauer and S. Grimme, Chem. Sci., 2017, 8, 4879.
     DOI: 10.1039/c7sc00601b
   * J. Koopman and S. Grimme, ACS Omega 2019, 4, 12, 15120-15133.
     DOI: 10.1021/acsomega.9b02011
   
   for metadynamics refer to:
   * S. Grimme, J. Chem. Theory Comput., 2019, 155, 2847-2862
     DOI: 10.1021/acs.jctc.9b00143
   
   for SPH calculations refer to:
   * S. Spicher and S. Grimme, J. Chem. Theory Comput., 2021, 17, 1701-1714
     DOI: 10.1021/acs.jctc.0c01306
   
   for ONIOM refer to:
   * C. Plett, A. Katbashev, S. Ehlert, S. Grimme, M. Bursch,
     Phys. Chem. Chem. Phys., 2023, 25, 17860-17868. DOI: 10.1039/D3CP02178E
   
   for DIPRO refer to:
   * J. Kohn, N. Gildemeister, S. Grimme, D. Fazzi, A. Hansen,
     J. Chem. Phys. 159, 144106 (2023). DOI: 10.1063/5.0167484
   
   for PTB refer to:
   * S. Grimme, M. Mueller, A. Hansen, J. Chem. Phys., 2023, 158, 124111.
     DOI: 10.1063/5.0137838
   
   for O1NumHess refer to:
   * B. Wang, S. Luo, Z. Wang, W. Liu,
     J. Chem. Theory Comput. 21, 10893-10909.
     DOI: 10.1021/acs.jctc.5c01354
   
   with help from (in alphabetical order)
   P. Atkinson, C. Bannwarth, F. Bohle, G. Brandenburg, E. Caldeweyher
   M. Checinski, S. Dohm, S. Ehlert, S. Ehrlich, I. Gerasimov, C. Hölzer
   A. Katbashev, J. Kohn, J. Koopman, C. Lavigne, S. Lehtola, F. März, M. Müller,
   F. Musil, H. Neugebauer, J. Pisarek, C. Plett, P. Pracht, F. Pultar,
   J. Seibert, L. M. Seidler, P. Shushkov, S. Spicher, M. Stahn, M. Steiner, T. Strunk,
   J. Stückrath, T. Rose, and J. Unsleber
   
 * started run on 2026/06/25 at 16:29:05.982     
   ID    Z sym.   atoms
    1    6 C      1-3, 7, 8, 11, 14, 15, 19, 23, 26, 28-33, 39, 41, 42, 46,
                  47, 50, 54, 55, 57, 60, 62, 66, 72, 74, 80, 82, 86, 88,
                  90-95, 102-107
    2    1 H      4-6, 9, 10, 13, 16-18, 20-22, 24, 34-38, 40, 43, 44, 48,
                  49, 52, 53, 58, 63-65, 67-70, 75-78, 84, 85, 96-101, 108-113
    3    8 O      12, 25, 27, 45, 51, 56, 59, 61, 71, 73, 79, 81, 83, 89
    4    7 N      87

           -------------------------------------------------
          |                Calculation Setup                |
           -------------------------------------------------

          program call               : /home/polt/xtb/build/xtb taxol.xyz --ohess --o1nh -1
          coordinate file            : taxol.xyz
          omp threads                :                     1

########################################################################
[WARNING] Please study the warnings concerning your input carefully
-2- prog_main: Step size for O1NumHess can be chosen to be much smaller (recommended: 1.0e-6)
-1- prog_main: O1NumHess does not support calculation of IR or Raman activities
########################################################################

           -------------------------------------------------
          |                 G F N 2 - x T B                 |
           -------------------------------------------------

        Reference                      10.1021/acs.jctc.8b01176
      * Hamiltonian:
        H0-scaling (s, p, d)           1.850000    2.230000    2.230000
        zeta-weighting                 0.500000
      * Dispersion:
        s8                             2.700000
        a1                             0.520000
        a2                             5.000000
        s9                             5.000000
      * Repulsion:
        kExp                           1.500000    1.000000
        rExp                           1.000000
      * Coulomb:
        alpha                          2.000000
        third order                    shell-resolved
        anisotropic                    true
        a3                             3.000000
        a5                             4.000000
        cn-shift                       1.200000
        cn-exp                         4.000000
        max-rad                        5.000000


          ...................................................
          :                      SETUP                      :
          :.................................................:
          :  # basis functions                 299          :
          :  # atomic orbitals                 299          :
          :  # shells                          175          :
          :  # electrons                       328          :
          :  max. iterations                   250          :
          :  Hamiltonian                  GFN2-xTB          :
          :  restarted?                      false          :
          :  GBSA solvation                  false          :
          :  PC potential                    false          :
          :  electronic temp.          300.0000000     K    :
          :  accuracy                    1.0000000          :
          :  -> integral cutoff          0.2500000E+02      :
          :  -> integral neglect         0.1000000E-07      :
          :  -> SCF convergence          0.1000000E-05 Eh   :
          :  -> wf. convergence          0.1000000E-03 e    :
          :  Broyden damping             0.4000000          :
          :  net charge                          0          :
          :  unpaired electrons                  0          :
          ...................................................

 iter      E             dE          RMSdq      gap      omega  full diag
   1   -188.4585126 -0.188459E+03  0.430E+00    3.17       0.0  T
   2   -188.7672301 -0.308717E+00  0.238E+00    2.57       1.0  T
   3   -188.7755403 -0.831027E-02  0.125E+00    2.76       1.0  T
   4   -188.8053070 -0.297667E-01  0.222E-01    2.39       1.0  T
   5   -188.8088147 -0.350774E-02  0.102E-01    2.47       1.0  T
   6   -188.8095834 -0.768633E-03  0.447E-02    2.50       1.0  T
   7   -188.8096582 -0.747808E-04  0.200E-02    2.50       1.0  T
   8   -188.8096647 -0.650686E-05  0.764E-03    2.50       1.2  T
   9   -188.8096679 -0.325439E-05  0.330E-03    2.50       2.9  T
  10   -188.8096681 -0.193262E-06  0.177E-03    2.50       5.3  T
  11   -188.8096683 -0.187207E-06  0.709E-04    2.50      13.3  T
  12   -188.8096683 -0.145421E-07  0.320E-04    2.50      29.4  T

   *** convergence criteria satisfied after 12 iterations ***

         #    Occupation            Energy/Eh            Energy/eV
      -------------------------------------------------------------
         1        2.0000           -0.8001956             -21.7744
       ...           ...                  ...                  ...
       158        2.0000           -0.4213485             -11.4655
       159        2.0000           -0.4206048             -11.4452
       160        2.0000           -0.4170713             -11.3491
       161        2.0000           -0.4148164             -11.2877
       162        2.0000           -0.4135382             -11.2529
       163        2.0000           -0.4038464             -10.9892
       164        2.0000           -0.3987816             -10.8514 (HOMO)
       165                         -0.3068603              -8.3501 (LUMO)
       166                         -0.2921300              -7.9493
       167                         -0.2740418              -7.4571
       168                         -0.2652041              -7.2166
       169                         -0.2611443              -7.1061
       ...                                ...                  ...
       299                          0.6614375              17.9986
      -------------------------------------------------------------
                  HL-Gap            0.0919213 Eh            2.5013 eV
             Fermi-level           -0.3528209 Eh           -9.6007 eV

 SCC (total)                   0 d,  0 h,  0 min,  1.353 sec
 SCC setup                      ...        0 min,  0.002 sec (  0.117%)
 Dispersion                     ...        0 min,  0.005 sec (  0.333%)
 classical contributions        ...        0 min,  0.001 sec (  0.046%)
 integral evaluation            ...        0 min,  0.051 sec (  3.752%)
 iterations                     ...        0 min,  1.087 sec ( 80.330%)
 molecular gradient             ...        0 min,  0.191 sec ( 14.129%)
 printout                       ...        0 min,  0.017 sec (  1.291%)

         :::::::::::::::::::::::::::::::::::::::::::::::::::::
         ::                     SUMMARY                     ::
         :::::::::::::::::::::::::::::::::::::::::::::::::::::
         :: total energy            -186.500449124213 Eh    ::
         :: gradient norm              0.142090738403 Eh/a0 ::
         :: HOMO-LUMO gap              2.501305953618 eV    ::
         ::.................................................::
         :: SCC energy              -188.798381924246 Eh    ::
         :: -> isotropic ES            0.336329706399 Eh    ::
         :: -> anisotropic ES         -0.000860166746 Eh    ::
         :: -> anisotropic XC          0.039433220075 Eh    ::
         :: -> dispersion             -0.169331199449 Eh    ::
         :: repulsion energy           2.297932800033 Eh    ::
         :: add. restraining           0.000000000000 Eh    ::
         :: total charge               0.000000000000 e     ::
         :::::::::::::::::::::::::::::::::::::::::::::::::::::

      ----------------------------------------------------------- 
     |                   =====================                   |
     |                        A N C O P T                        |
     |                   =====================                   |
     |               Approximate Normal Coordinate               |
     |                Rational Function Optimizer                |
      ----------------------------------------------------------- 

          ...................................................
          :                      SETUP                      :
          :.................................................:
          :   optimization level            normal          :
          :   max. optcycles                   339          :
          :   ANC micro-cycles                  20          :
          :   degrees of freedom               333          :
          :.................................................:
          :   RF solver                   davidson          :
          :   write xtbopt.log                true          :
          :   linear?                        false          :
          :   energy convergence         0.5000000E-05 Eh   :
          :   grad. convergence          0.1000000E-02 Eh/α :
          :   maximum RF displ.          1.0000000          :
          :   Hlow (freq-cutoff)         0.1000000E-01      :
          :   Hmax (freq-cutoff)         5.0000000          :
          :   S6 in model hess.         20.0000000          :
          ...................................................

generating ANC from exact Hessian ...
Using Lindh-Hessian (1995)
 Shifting diagonal of input Hessian by    9.9452778019063666E-003
 Lowest  eigenvalues of input Hessian
    0.000000    0.000000    0.000000    0.000000    0.000000    0.000000
    0.010000    0.010102    0.010199    0.010359    0.010393    0.010488
    0.010546    0.010615    0.010923    0.011040    0.011065    0.011169
 Highest eigenvalues
    2.153784    2.329794    2.365906    2.412794    2.414819    2.455873


........................................................................
.............................. CYCLE    1 ..............................
........................................................................

 iter      E             dE          RMSdq      gap      omega  full diag
   1   -188.8096683 -0.188810E+03  0.126E-04    2.50       0.0  T
   2   -188.8096683 -0.456367E-09  0.845E-05    2.50     111.4  T
   3   -188.8096683 -0.300020E-09  0.534E-05    2.50     176.1  T
     SCC iter.                  ...        0 min,  0.279 sec
     gradient                   ...        0 min,  0.190 sec
 * total energy  :  -186.5004491 Eh     change       -0.5546013E-08 Eh
   gradient norm :     0.1420950 Eh/α   predicted     0.0000000E+00 (-100.00%)
   displ. norm   :     0.3998682 α      lambda       -0.2418081E-01
   maximum displ.:     0.1099566 α      in ANC's #31, #71, #57, ...

........................................................................
.............................. CYCLE    2 ..............................
........................................................................

 iter      E             dE          RMSdq      gap      omega  full diag
   1   -188.8310936 -0.188831E+03  0.139E-01    2.50       0.0  T
   2   -188.8320791 -0.985524E-03  0.842E-02    2.61       1.0  T
   3   -188.8321423 -0.631418E-04  0.477E-02    2.61       1.0  T
   4   -188.8321262  0.160728E-04  0.228E-02    2.62       1.0  T
   5   -188.8321579 -0.317409E-04  0.753E-03    2.62       1.2  T
   6   -188.8321628 -0.488093E-05  0.212E-03    2.62       4.4  T
   7   -188.8321630 -0.129750E-06  0.112E-03    2.62       8.4  T
   8   -188.8321630 -0.792621E-07  0.398E-04    2.62      23.7  T
   9   -188.8321630 -0.488521E-08  0.149E-04    2.62      63.2  T
     SCC iter.                  ...        0 min,  0.817 sec
     gradient                   ...        0 min,  0.190 sec
 * total energy  :  -186.5182552 Eh     change       -0.1780603E-01 Eh
   gradient norm :     0.0692248 Eh/α   predicted    -0.1407426E-01 ( -20.96%)
   displ. norm   :     0.4533727 α      lambda       -0.1211605E-01
   maximum displ.:     0.1615027 α      in ANC's #31, #43, #24, ...

........................................................................
.............................. CYCLE    3 ..............................
........................................................................

 iter      E             dE          RMSdq      gap      omega  full diag
   1   -188.8355364 -0.188836E+03  0.115E-01    2.62       0.0  T
   2   -188.8363699 -0.833497E-03  0.688E-02    2.69       1.0  T
   3   -188.8364271 -0.572393E-04  0.396E-02    2.70       1.0  T
   4   -188.8364118  0.153322E-04  0.210E-02    2.71       1.0  T
   5   -188.8364340 -0.222409E-04  0.718E-03    2.71       1.3  T
   6   -188.8364385 -0.445403E-05  0.183E-03    2.71       5.2  T
   7   -188.8364386 -0.110427E-06  0.965E-04    2.71       9.7  T
   8   -188.8364386 -0.614304E-07  0.345E-04    2.71      27.3  T
     SCC iter.                  ...        0 min,  0.726 sec
     gradient                   ...        0 min,  0.190 sec
 * total energy  :  -186.5262703 Eh     change       -0.8015103E-02 Eh
   gradient norm :     0.0199006 Eh/α   predicted    -0.7303232E-02 (  -8.88%)
   displ. norm   :     0.4148597 α      lambda       -0.3629712E-02
   maximum displ.:     0.1561658 α      in ANC's #31, #18, #24, ...

........................................................................
.............................. CYCLE    4 ..............................
........................................................................

 iter      E             dE          RMSdq      gap      omega  full diag
   1   -188.8285791 -0.188829E+03  0.640E-02    2.70       0.0  T
   2   -188.8287148 -0.135683E-03  0.378E-02    2.71       1.0  T
   3   -188.8287217 -0.692643E-05  0.200E-02    2.71       1.0  T
   4   -188.8287236 -0.193666E-05  0.665E-03    2.72       1.4  T
   5   -188.8287264 -0.271683E-05  0.230E-03    2.72       4.1  T
   6   -188.8287268 -0.482097E-06  0.961E-04    2.72       9.8  T
   7   -188.8287269 -0.135820E-07  0.517E-04    2.72      18.2  T
     SCC iter.                  ...        0 min,  0.637 sec
     gradient                   ...        0 min,  0.189 sec
 * total energy  :  -186.5288878 Eh     change       -0.2617544E-02 Eh
   gradient norm :     0.0141730 Eh/α   predicted    -0.2127226E-02 ( -18.73%)
   displ. norm   :     0.4227033 α      lambda       -0.1991029E-02
   maximum displ.:     0.1375901 α      in ANC's #18, #31, #16, ...

........................................................................
.............................. CYCLE    5 ..............................
........................................................................

 iter      E             dE          RMSdq      gap      omega  full diag
   1   -188.8223298 -0.188822E+03  0.580E-02    2.72       0.0  T
   2   -188.8223593 -0.295799E-04  0.341E-02    2.73       1.0  T
   3   -188.8223559  0.342117E-05  0.123E-02    2.73       1.0  T
   4   -188.8223613 -0.537288E-05  0.440E-03    2.73       2.1  T
   5   -188.8223627 -0.142724E-05  0.186E-03    2.73       5.1  T
   6   -188.8223629 -0.214625E-06  0.855E-04    2.73      11.0  T
   7   -188.8223629 -0.133499E-07  0.386E-04    2.73      24.4  T
     SCC iter.                  ...        0 min,  0.637 sec
     gradient                   ...        0 min,  0.189 sec
 * total energy  :  -186.5303412 Eh     change       -0.1453426E-02 Eh
   gradient norm :     0.0139936 Eh/α   predicted    -0.1173401E-02 ( -19.27%)
   displ. norm   :     0.4165205 α      lambda       -0.1247903E-02
   maximum displ.:     0.1446725 α      in ANC's #18, #8, #16, ...

........................................................................
.............................. CYCLE    6 ..............................
........................................................................

 iter      E             dE          RMSdq      gap      omega  full diag
   1   -188.8198841 -0.188820E+03  0.577E-02    2.73       0.0  T
   2   -188.8198907 -0.651993E-05  0.341E-02    2.74       1.0  T
   3   -188.8198837  0.697998E-05  0.968E-03    2.74       1.0  T
   4   -188.8198923 -0.859193E-05  0.303E-03    2.74       3.1  T
   5   -188.8198928 -0.532964E-06  0.141E-03    2.74       6.7  T
   6   -188.8198929 -0.646308E-07  0.670E-04    2.74      14.0  T
   7   -188.8198929 -0.138458E-07  0.277E-04    2.74      33.9  T
     SCC iter.                  ...        0 min,  0.635 sec
     gradient                   ...        0 min,  0.189 sec
 * total energy  :  -186.5312844 Eh     change       -0.9432079E-03 Eh
   gradient norm :     0.0126059 Eh/α   predicted    -0.7322361E-03 ( -22.37%)
   displ. norm   :     0.4465079 α      lambda       -0.1009637E-02
   maximum displ.:     0.1537553 α      in ANC's #8, #18, #16, ...

........................................................................
.............................. CYCLE    7 ..............................
........................................................................

 iter      E             dE          RMSdq      gap      omega  full diag
   1   -188.8209649 -0.188821E+03  0.627E-02    2.75       0.0  T
   2   -188.8209750 -0.100781E-04  0.371E-02    2.75       1.0  T
   3   -188.8209677  0.726643E-05  0.103E-02    2.75       1.0  T
   4   -188.8209769 -0.912466E-05  0.317E-03    2.75       3.0  T
   5   -188.8209775 -0.673464E-06  0.151E-03    2.75       6.2  T
   6   -188.8209776 -0.853652E-07  0.775E-04    2.75      12.1  T
   7   -188.8209776 -0.133210E-07  0.311E-04    2.75      30.2  T
     SCC iter.                  ...        0 min,  0.636 sec
     gradient                   ...        0 min,  0.189 sec
 * total energy  :  -186.5320621 Eh     change       -0.7776259E-03 Eh
   gradient norm :     0.0097803 Eh/α   predicted    -0.6054645E-03 ( -22.14%)
   displ. norm   :     0.4780835 α      lambda       -0.8662225E-03
   maximum displ.:     0.1785061 α      in ANC's #8, #18, #16, ...

........................................................................
.............................. CYCLE    8 ..............................
........................................................................

 iter      E             dE          RMSdq      gap      omega  full diag
   1   -188.8235808 -0.188824E+03  0.684E-02    2.76       0.0  T
   2   -188.8235975 -0.166485E-04  0.404E-02    2.76       1.0  T
   3   -188.8235907  0.680728E-05  0.107E-02    2.77       1.0  T
   4   -188.8235997 -0.899689E-05  0.298E-03    2.76       3.2  T
   5   -188.8236005 -0.824638E-06  0.132E-03    2.76       7.1  T
   6   -188.8236005 -0.442993E-07  0.737E-04    2.76      12.8  T
   7   -188.8236005 -0.102667E-07  0.319E-04    2.76      29.5  T
     SCC iter.                  ...        0 min,  0.637 sec
     gradient                   ...        0 min,  0.189 sec
 * total energy  :  -186.5327310 Eh     change       -0.6689490E-03 Eh
   gradient norm :     0.0084396 Eh/α   predicted    -0.5321057E-03 ( -20.46%)
   displ. norm   :     0.4822760 α      lambda       -0.7255222E-03
   maximum displ.:     0.1892776 α      in ANC's #8, #13, #6, ...

........................................................................
.............................. CYCLE    9 ..............................
........................................................................

 iter      E             dE          RMSdq      gap      omega  full diag
   1   -188.8278103 -0.188828E+03  0.659E-02    2.79       0.0  T
   2   -188.8278212 -0.108994E-04  0.389E-02    2.79       1.0  T
   3   -188.8278149  0.633968E-05  0.959E-03    2.79       1.0  T
   4   -188.8278230 -0.812626E-05  0.293E-03    2.79       3.2  T
   5   -188.8278236 -0.650453E-06  0.143E-03    2.79       6.6  T
   6   -188.8278237 -0.652179E-07  0.789E-04    2.79      11.9  T
   7   -188.8278237 -0.162256E-07  0.310E-04    2.79      30.3  T
     SCC iter.                  ...        0 min,  0.636 sec
     gradient                   ...        0 min,  0.191 sec
 * total energy  :  -186.5332804 Eh     change       -0.5493620E-03 Eh
   gradient norm :     0.0076958 Eh/α   predicted    -0.4471366E-03 ( -18.61%)
   displ. norm   :     0.4967823 α      lambda       -0.5827361E-03
   maximum displ.:     0.2021769 α      in ANC's #8, #13, #2, ...

........................................................................
.............................. CYCLE   10 ..............................
........................................................................

 iter      E             dE          RMSdq      gap      omega  full diag
   1   -188.8286604 -0.188829E+03  0.690E-02    2.78       0.0  T
   2   -188.8286762 -0.158087E-04  0.408E-02    2.79       1.0  T
   3   -188.8286684  0.781637E-05  0.106E-02    2.79       1.0  T
   4   -188.8286771 -0.871202E-05  0.433E-03    2.79       2.2  T
   5   -188.8286788 -0.171748E-05  0.150E-03    2.79       6.3  T
   6   -188.8286789 -0.605608E-07  0.863E-04    2.79      10.9  T
   7   -188.8286789 -0.257406E-07  0.297E-04    2.79      31.6  T
     SCC iter.                  ...        0 min,  0.636 sec
     gradient                   ...        0 min,  0.189 sec
 * total energy  :  -186.5337021 Eh     change       -0.4217094E-03 Eh
   gradient norm :     0.0101714 Eh/α   predicted    -0.3632769E-03 ( -13.86%)
   displ. norm   :     0.4679325 α      lambda       -0.5596262E-03
   maximum displ.:     0.1991016 α      in ANC's #8, #2, #13, ...

........................................................................
.............................. CYCLE   11 ..............................
........................................................................

 iter      E             dE          RMSdq      gap      omega  full diag
   1   -188.8336810 -0.188834E+03  0.591E-02    2.83       0.0  T
   2   -188.8336922 -0.112305E-04  0.350E-02    2.83       1.0  T
   3   -188.8336845  0.765770E-05  0.107E-02    2.83       1.0  T
   4   -188.8336936 -0.905872E-05  0.362E-03    2.83       2.6  T
   5   -188.8336946 -0.104716E-05  0.126E-03    2.83       7.5  T
   6   -188.8336947 -0.466100E-07  0.650E-04    2.83      14.5  T
   7   -188.8336947 -0.760596E-08  0.264E-04    2.83      35.6  T
     SCC iter.                  ...        0 min,  0.637 sec
     gradient                   ...        0 min,  0.189 sec
 * total energy  :  -186.5340648 Eh     change       -0.3626926E-03 Eh
   gradient norm :     0.0099153 Eh/α   predicted    -0.3411128E-03 (  -5.95%)
   displ. norm   :     0.4604774 α      lambda       -0.4149547E-03
   maximum displ.:     0.2027390 α      in ANC's #8, #13, #2, ...

........................................................................
.............................. CYCLE   12 ..............................
........................................................................

 iter      E             dE          RMSdq      gap      omega  full diag
   1   -188.8308492 -0.188831E+03  0.621E-02    2.82       0.0  T
   2   -188.8308596 -0.103852E-04  0.367E-02    2.82       1.0  T
   3   -188.8308539  0.565034E-05  0.913E-03    2.83       1.0  T
   4   -188.8308608 -0.690118E-05  0.306E-03    2.83       3.1  T
   5   -188.8308616 -0.724239E-06  0.135E-03    2.83       7.0  T
   6   -188.8308616 -0.767908E-07  0.654E-04    2.83      14.4  T
   7   -188.8308616 -0.775893E-08  0.279E-04    2.83      33.7  T
     SCC iter.                  ...        0 min,  0.636 sec
     gradient                   ...        0 min,  0.189 sec
 * total energy  :  -186.5343789 Eh     change       -0.3140837E-03 Eh
   gradient norm :     0.0074511 Eh/α   predicted    -0.2514763E-03 ( -19.93%)
   displ. norm   :     0.4365724 α      lambda       -0.4451726E-03
   maximum displ.:     0.1948836 α      in ANC's #8, #3, #2, ...

........................................................................
.............................. CYCLE   13 ..............................
........................................................................

 iter      E             dE          RMSdq      gap      omega  full diag
   1   -188.8328816 -0.188833E+03  0.596E-02    2.83       0.0  T
   2   -188.8328886 -0.703035E-05  0.351E-02    2.83       1.0  T
   3   -188.8328851  0.346448E-05  0.703E-03    2.83       1.3  T
   4   -188.8328896 -0.444736E-05  0.201E-03    2.83       4.7  T
   5   -188.8328899 -0.311873E-06  0.100E-03    2.83       9.4  T
   6   -188.8328899 -0.422621E-07  0.525E-04    2.83      17.9  T
   7   -188.8328899 -0.539254E-08  0.227E-04    2.83      41.5  T
     SCC iter.                  ...        0 min,  0.637 sec
     gradient                   ...        0 min,  0.189 sec
 * total energy  :  -186.5346991 Eh     change       -0.3202551E-03 Eh
   gradient norm :     0.0075757 Eh/α   predicted    -0.2650312E-03 ( -17.24%)
   displ. norm   :     0.5123864 α      lambda       -0.4234683E-03
   maximum displ.:     0.2364920 α      in ANC's #8, #3, #2, ...

........................................................................
.............................. CYCLE   14 ..............................
........................................................................

 iter      E             dE          RMSdq      gap      omega  full diag
   1   -188.8287140 -0.188829E+03  0.699E-02    2.85       0.0  T
   2   -188.8287213 -0.721880E-05  0.412E-02    2.85       1.0  T
   3   -188.8287174  0.384051E-05  0.737E-03    2.85       1.3  T
   4   -188.8287227 -0.530165E-05  0.187E-03    2.85       5.0  T
   5   -188.8287229 -0.204685E-06  0.101E-03    2.85       9.3  T
   6   -188.8287230 -0.235135E-07  0.522E-04    2.85      18.0  T
   7   -188.8287230 -0.844423E-08  0.219E-04    2.85      43.0  T
     SCC iter.                  ...        0 min,  0.637 sec
     gradient                   ...        0 min,  0.189 sec
 * total energy  :  -186.5349578 Eh     change       -0.2587168E-03 Eh
   gradient norm :     0.0095709 Eh/α   predicted    -0.2673251E-03 (   3.33%)
   displ. norm   :     0.3473592 α      lambda       -0.3200795E-03
   maximum displ.:     0.1585222 α      in ANC's #8, #3, #2, ...

........................................................................
.............................. CYCLE   15 ..............................
........................................................................

 iter      E             dE          RMSdq      gap      omega  full diag
   1   -188.8315981 -0.188832E+03  0.477E-02    2.85       0.0  T
   2   -188.8316007 -0.265271E-05  0.281E-02    2.85       1.0  T
   3   -188.8315989  0.188278E-05  0.480E-03    2.85       2.0  T
   4   -188.8316013 -0.243395E-05  0.133E-03    2.85       7.1  T
   5   -188.8316014 -0.119464E-06  0.691E-04    2.85      13.6  T
   6   -188.8316014 -0.116985E-07  0.381E-04    2.85      24.7  T
     SCC iter.                  ...        0 min,  0.548 sec
     gradient                   ...        0 min,  0.189 sec
 * total energy  :  -186.5351852 Eh     change       -0.2273974E-03 Eh
   gradient norm :     0.0076192 Eh/α   predicted    -0.1793538E-03 ( -21.13%)
   displ. norm   :     0.4173448 α      lambda       -0.2822882E-03
   maximum displ.:     0.2032726 α      in ANC's #8, #3, #7, ...

........................................................................
.............................. CYCLE   16 ..............................
........................................................................

 iter      E             dE          RMSdq      gap      omega  full diag
   1   -188.8332890 -0.188833E+03  0.518E-02    2.85       0.0  T
   2   -188.8332934 -0.439818E-05  0.305E-02    2.84       1.0  T
   3   -188.8332911  0.228285E-05  0.545E-03    2.85       1.7  T
   4   -188.8332941 -0.293093E-05  0.165E-03    2.85       5.7  T
   5   -188.8332943 -0.230638E-06  0.778E-04    2.85      12.1  T
   6   -188.8332943 -0.131925E-07  0.455E-04    2.85      20.7  T
     SCC iter.                  ...        0 min,  0.547 sec
     gradient                   ...        0 min,  0.189 sec
 * total energy  :  -186.5354052 Eh     change       -0.2199470E-03 Eh
   gradient norm :     0.0061858 Eh/α   predicted    -0.1657289E-03 ( -24.65%)
   displ. norm   :     0.4646557 α      lambda       -0.2801994E-03
   maximum displ.:     0.2262603 α      in ANC's #8, #3, #7, ...

........................................................................
.............................. CYCLE   17 ..............................
........................................................................

 iter      E             dE          RMSdq      gap      omega  full diag
   1   -188.8348684 -0.188835E+03  0.539E-02    2.85       0.0  T
   2   -188.8348732 -0.471600E-05  0.318E-02    2.85       1.0  T
   3   -188.8348700  0.315560E-05  0.655E-03    2.85       1.4  T
   4   -188.8348737 -0.371548E-05  0.242E-03    2.85       3.9  T
   5   -188.8348742 -0.474373E-06  0.963E-04    2.85       9.8  T
   6   -188.8348742 -0.281567E-07  0.486E-04    2.85      19.4  T
     SCC iter.                  ...        0 min,  0.547 sec
     gradient                   ...        0 min,  0.189 sec
 * total energy  :  -186.5356112 Eh     change       -0.2060371E-03 Eh
   gradient norm :     0.0052852 Eh/α   predicted    -0.1703514E-03 ( -17.32%)
   displ. norm   :     0.4665558 α      lambda       -0.2104658E-03
   maximum displ.:     0.2244103 α      in ANC's #8, #3, #7, ...

........................................................................
.............................. CYCLE   18 ..............................
........................................................................

 iter      E             dE          RMSdq      gap      omega  full diag
   1   -188.8352497 -0.188835E+03  0.516E-02    2.85       0.0  T
   2   -188.8352532 -0.345655E-05  0.305E-02    2.85       1.0  T
   3   -188.8352498  0.336212E-05  0.651E-03    2.85       1.4  T
   4   -188.8352537 -0.386968E-05  0.243E-03    2.85       3.9  T
   5   -188.8352542 -0.456500E-06  0.894E-04    2.85      10.5  T
   6   -188.8352542 -0.116902E-07  0.450E-04    2.85      20.9  T
     SCC iter.                  ...        0 min,  0.548 sec
     gradient                   ...        0 min,  0.189 sec
 * total energy  :  -186.5357627 Eh     change       -0.1514321E-03 Eh
   gradient norm :     0.0055938 Eh/α   predicted    -0.1281418E-03 ( -15.38%)
   displ. norm   :     0.4451593 α      lambda       -0.2002309E-03
   maximum displ.:     0.2069433 α      in ANC's #8, #3, #7, ...

........................................................................
.............................. CYCLE   19 ..............................
........................................................................

 iter      E             dE          RMSdq      gap      omega  full diag
   1   -188.8356778 -0.188836E+03  0.472E-02    2.85       0.0  T
   2   -188.8356805 -0.273647E-05  0.279E-02    2.85       1.0  T
   3   -188.8356775  0.301981E-05  0.613E-03    2.86       1.5  T
   4   -188.8356811 -0.356539E-05  0.215E-03    2.86       4.4  T
   5   -188.8356814 -0.330253E-06  0.914E-04    2.86      10.3  T
   6   -188.8356814 -0.163206E-07  0.412E-04    2.86      22.8  T
     SCC iter.                  ...        0 min,  0.548 sec
     gradient                   ...        0 min,  0.189 sec
 * total energy  :  -186.5358886 Eh     change       -0.1259735E-03 Eh
   gradient norm :     0.0072890 Eh/α   predicted    -0.1199578E-03 (  -4.78%)
   displ. norm   :     0.4490131 α      lambda       -0.2159360E-03
   maximum displ.:     0.1983726 α      in ANC's #8, #3, #2, ...

........................................................................
.............................. CYCLE   20 ..............................
........................................................................

 iter      E             dE          RMSdq      gap      omega  full diag
   1   -188.8329623 -0.188833E+03  0.467E-02    2.85       0.0  T
   2   -188.8329653 -0.305511E-05  0.276E-02    2.86       1.0  T
   3   -188.8329628  0.246492E-05  0.566E-03    2.86       1.7  T
   4   -188.8329658 -0.292536E-05  0.209E-03    2.86       4.5  T
   5   -188.8329661 -0.334149E-06  0.902E-04    2.86      10.4  T
   6   -188.8329661 -0.146624E-07  0.446E-04    2.86      21.1  T
     SCC iter.                  ...        0 min,  0.548 sec
     gradient                   ...        0 min,  0.189 sec
 * total energy  :  -186.5360131 Eh     change       -0.1244524E-03 Eh
   gradient norm :     0.0067793 Eh/α   predicted    -0.1297380E-03 (   4.25%)
   displ. norm   :     0.2899201 α      lambda       -0.1888236E-03
   maximum displ.:     0.1468676 α      in ANC's #3, #6, #2, ...
 * RMSD in coord.:     0.6480183 α      energy gain  -0.3556395E-01 Eh

generating ANC from exact Hessian ...
Using Lindh-Hessian (1995)
 Shifting diagonal of input Hessian by    9.9756790726186536E-003
 Lowest  eigenvalues of input Hessian
    0.000000    0.000000    0.000000    0.000000    0.000000    0.000000
    0.010000    0.010107    0.010196    0.010279    0.010408    0.010440
    0.010494    0.010598    0.010757    0.010865    0.010968    0.011081
 Highest eigenvalues
    2.118436    2.316159    2.344513    2.350148    2.369006    2.380461


........................................................................
.............................. CYCLE   21 ..............................
........................................................................

 iter      E             dE          RMSdq      gap      omega  full diag
   1   -188.8376505 -0.188838E+03  0.334E-02    2.87       0.0  T
   2   -188.8376528 -0.227315E-05  0.197E-02    2.87       1.0  T
   3   -188.8376517  0.115803E-05  0.425E-03    2.87       2.2  T
   4   -188.8376533 -0.160812E-05  0.133E-03    2.87       7.1  T
   5   -188.8376534 -0.100336E-06  0.740E-04    2.87      12.7  T
   6   -188.8376534 -0.183061E-07  0.391E-04    2.87      24.1  T
     SCC iter.                  ...        0 min,  0.549 sec
     gradient                   ...        0 min,  0.189 sec
 * total energy  :  -186.5361006 Eh     change       -0.8755977E-04 Eh
   gradient norm :     0.0074791 Eh/α   predicted     0.0000000E+00 (-100.00%)
   displ. norm   :     0.0595040 α      lambda       -0.1374612E-03
   maximum displ.:     0.0187391 α      in ANC's #3, #20, #14, ...

........................................................................
.............................. CYCLE   22 ..............................
........................................................................

 iter      E             dE          RMSdq      gap      omega  full diag
   1   -188.8356083 -0.188836E+03  0.126E-02    2.87       0.0  T
   2   -188.8356093 -0.991828E-06  0.755E-03    2.87       1.2  T
   3   -188.8356087  0.582464E-06  0.329E-03    2.87       2.9  T
   4   -188.8356094 -0.693216E-06  0.118E-03    2.87       8.0  T
   5   -188.8356096 -0.126593E-06  0.382E-04    2.87      24.7  T
   6   -188.8356096 -0.471732E-08  0.191E-04    2.87      49.3  T
     SCC iter.                  ...        0 min,  0.547 sec
     gradient                   ...        0 min,  0.189 sec
 * total energy  :  -186.5362104 Eh     change       -0.1097222E-03 Eh
   gradient norm :     0.0034005 Eh/α   predicted    -0.7167512E-04 ( -34.68%)
   displ. norm   :     0.1479873 α      lambda       -0.1962573E-03
   maximum displ.:     0.0537776 α      in ANC's #3, #20, #5, ...

........................................................................
.............................. CYCLE   23 ..............................
........................................................................

 iter      E             dE          RMSdq      gap      omega  full diag
   1   -188.8331981 -0.188833E+03  0.269E-02    2.87       0.0  T
   2   -188.8332024 -0.422096E-05  0.162E-02    2.87       1.0  T
   3   -188.8331990  0.337251E-05  0.765E-03    2.87       1.2  T
   4   -188.8332031 -0.409748E-05  0.255E-03    2.87       3.7  T
   5   -188.8332036 -0.558192E-06  0.809E-04    2.87      11.6  T
   6   -188.8332037 -0.187781E-07  0.423E-04    2.87      22.3  T
     SCC iter.                  ...        0 min,  0.548 sec
     gradient                   ...        0 min,  0.189 sec
 * total energy  :  -186.5363339 Eh     change       -0.1235082E-03 Eh
   gradient norm :     0.0057562 Eh/α   predicted    -0.1002790E-03 ( -18.81%)
   displ. norm   :     0.1204274 α      lambda       -0.9554058E-04
   maximum displ.:     0.0516552 α      in ANC's #3, #20, #5, ...

........................................................................
.............................. CYCLE   24 ..............................
........................................................................

 iter      E             dE          RMSdq      gap      omega  full diag
   1   -188.8332265 -0.188833E+03  0.204E-02    2.88       0.0  T
   2   -188.8332280 -0.155377E-05  0.123E-02    2.88       1.0  T
   3   -188.8332256  0.243248E-05  0.573E-03    2.88       1.6  T
   4   -188.8332284 -0.285137E-05  0.160E-03    2.88       5.9  T
   5   -188.8332286 -0.200422E-06  0.541E-04    2.88      17.4  T
   6   -188.8332286 -0.580147E-08  0.289E-04    2.88      32.5  T
     SCC iter.                  ...        0 min,  0.548 sec
     gradient                   ...        0 min,  0.195 sec
 * total energy  :  -186.5364114 Eh     change       -0.7749183E-04 Eh
   gradient norm :     0.0078777 Eh/α   predicted    -0.4846553E-04 ( -37.46%)
   displ. norm   :     0.2595647 α      lambda       -0.2153123E-03
   maximum displ.:     0.1221785 α      in ANC's #3, #20, #5, ...

........................................................................
.............................. CYCLE   25 ..............................
........................................................................

 iter      E             dE          RMSdq      gap      omega  full diag
   1   -188.8340339 -0.188834E+03  0.430E-02    2.90       0.0  T
   2   -188.8340391 -0.515530E-05  0.259E-02    2.90       1.0  T
   3   -188.8340278  0.112372E-04  0.117E-02    2.90       1.0  T
   4   -188.8340408 -0.129854E-04  0.292E-03    2.90       3.2  T
   5   -188.8340414 -0.605013E-06  0.110E-03    2.90       8.6  T
   6   -188.8340415 -0.213223E-07  0.568E-04    2.90      16.6  T
   7   -188.8340415 -0.129625E-07  0.199E-04    2.90      47.2  T
     SCC iter.                  ...        0 min,  0.638 sec
     gradient                   ...        0 min,  0.189 sec
 * total energy  :  -186.5365663 Eh     change       -0.1549692E-03 Eh
   gradient norm :     0.0099721 Eh/α   predicted    -0.1149285E-03 ( -25.84%)
   displ. norm   :     0.2292369 α      lambda       -0.2048384E-03
   maximum displ.:     0.1249629 α      in ANC's #3, #5, #20, ...

........................................................................
.............................. CYCLE   26 ..............................
........................................................................

 iter      E             dE          RMSdq      gap      omega  full diag
   1   -188.8357130 -0.188836E+03  0.367E-02    2.92       0.0  T
   2   -188.8357157 -0.267716E-05  0.220E-02    2.92       1.0  T
   3   -188.8357091  0.656867E-05  0.875E-03    2.92       1.1  T
   4   -188.8357166 -0.751711E-05  0.212E-03    2.92       4.4  T
   5   -188.8357169 -0.287901E-06  0.883E-04    2.92      10.7  T
   6   -188.8357169 -0.132653E-07  0.444E-04    2.92      21.2  T
     SCC iter.                  ...        0 min,  0.548 sec
     gradient                   ...        0 min,  0.189 sec
 * total energy  :  -186.5367226 Eh     change       -0.1563036E-03 Eh
   gradient norm :     0.0072821 Eh/α   predicted    -0.1078062E-03 ( -31.03%)
   displ. norm   :     0.2690311 α      lambda       -0.2050750E-03
   maximum displ.:     0.1626212 α      in ANC's #3, #5, #37, ...

........................................................................
.............................. CYCLE   27 ..............................
........................................................................

 iter      E             dE          RMSdq      gap      omega  full diag
   1   -188.8363825 -0.188836E+03  0.424E-02    2.94       0.0  T
   2   -188.8363864 -0.390859E-05  0.254E-02    2.94       1.0  T
   3   -188.8363787  0.770451E-05  0.965E-03    2.94       1.0  T
   4   -188.8363875 -0.879303E-05  0.257E-03    2.94       3.7  T
   5   -188.8363879 -0.452544E-06  0.102E-03    2.94       9.2  T
   6   -188.8363879 -0.201740E-07  0.504E-04    2.94      18.7  T
   7   -188.8363880 -0.722775E-08  0.183E-04    2.94      51.4  T
     SCC iter.                  ...        0 min,  0.638 sec
     gradient                   ...        0 min,  0.189 sec
 * total energy  :  -186.5368855 Eh     change       -0.1629155E-03 Eh
   gradient norm :     0.0051055 Eh/α   predicted    -0.1099609E-03 ( -32.50%)
   displ. norm   :     0.3565263 α      lambda       -0.2377993E-03
   maximum displ.:     0.2311632 α      in ANC's #3, #5, #37, ...

........................................................................
.............................. CYCLE   28 ..............................
........................................................................

 iter      E             dE          RMSdq      gap      omega  full diag
   1   -188.8359554 -0.188836E+03  0.553E-02    2.96       0.0  T
   2   -188.8359627 -0.732147E-05  0.331E-02    2.97       1.0  T
   3   -188.8359508  0.119184E-04  0.121E-02    2.97       1.0  T
   4   -188.8359644 -0.136777E-04  0.344E-03    2.97       2.7  T
   5   -188.8359653 -0.814889E-06  0.137E-03    2.97       6.9  T
   6   -188.8359653 -0.491032E-07  0.671E-04    2.97      14.0  T
   7   -188.8359653 -0.127506E-07  0.262E-04    2.97      35.9  T
     SCC iter.                  ...        0 min,  0.637 sec
     gradient                   ...        0 min,  0.189 sec
 * total energy  :  -186.5370708 Eh     change       -0.1852016E-03 Eh
   gradient norm :     0.0067570 Eh/α   predicted    -0.1340169E-03 ( -27.64%)
   displ. norm   :     0.3932691 α      lambda       -0.3632751E-03
   maximum displ.:     0.2743976 α      in ANC's #3, #5, #29, ...

........................................................................
.............................. CYCLE   29 ..............................
........................................................................

 iter      E             dE          RMSdq      gap      omega  full diag
   1   -188.8390918 -0.188839E+03  0.545E-02    2.99       0.0  T
   2   -188.8390992 -0.740543E-05  0.324E-02    2.99       1.0  T
   3   -188.8390953  0.390968E-05  0.816E-03    3.00       1.2  T
   4   -188.8391003 -0.506118E-05  0.318E-03    3.00       3.0  T
   5   -188.8391010 -0.708029E-06  0.144E-03    3.00       6.5  T
   6   -188.8391011 -0.514518E-07  0.731E-04    3.00      12.9  T
   7   -188.8391011 -0.129365E-07  0.230E-04    3.00      41.0  T
     SCC iter.                  ...        0 min,  0.638 sec
     gradient                   ...        0 min,  0.189 sec
 * total energy  :  -186.5372039 Eh     change       -0.1331775E-03 Eh
   gradient norm :     0.0113877 Eh/α   predicted    -0.2097302E-03 (  57.48%)
   displ. norm   :     0.5574777 α      lambda       -0.4665189E-03
   maximum displ.:     0.3773800 α      in ANC's #3, #5, #59, ...

........................................................................
.............................. CYCLE   30 ..............................
........................................................................

 iter      E             dE          RMSdq      gap      omega  full diag
   1   -188.8320638 -0.188832E+03  0.842E-02    3.03       0.0  T
   2   -188.8320865 -0.227301E-04  0.497E-02    3.03       1.0  T
   3   -188.8320571  0.293715E-04  0.196E-02    3.04       1.0  T
   4   -188.8320922 -0.350972E-04  0.573E-03    3.04       1.6  T
   5   -188.8320942 -0.198081E-05  0.245E-03    3.04       3.8  T
   6   -188.8320944 -0.225303E-06  0.115E-03    3.04       8.2  T
   7   -188.8320945 -0.355234E-07  0.523E-04    3.04      18.0  T
   8   -188.8320945 -0.109593E-07  0.133E-04    3.04      70.8  T
     SCC iter.                  ...        0 min,  0.727 sec
     gradient                   ...        0 min,  0.189 sec
 * total energy  :  -186.5371254 Eh     change        0.7855313E-04 Eh
   gradient norm :     0.0226214 Eh/α   predicted    -0.3057534E-03 (-489.23%)
   displ. norm   :     0.2909677 α      lambda       -0.7230752E-03
   maximum displ.:     0.1803147 α      in ANC's #3, #5, #37, ...

........................................................................
.............................. CYCLE   31 ..............................
........................................................................

 iter      E             dE          RMSdq      gap      omega  full diag
   1   -188.8367804 -0.188837E+03  0.474E-02    3.02       0.0  T
   2   -188.8367891 -0.870510E-05  0.279E-02    3.02       1.0  T
   3   -188.8367820  0.710837E-05  0.105E-02    3.01       1.0  T
   4   -188.8367908 -0.876445E-05  0.369E-03    3.02       2.6  T
   5   -188.8367916 -0.872213E-06  0.150E-03    3.02       6.3  T
   6   -188.8367917 -0.741430E-07  0.730E-04    3.02      12.9  T
   7   -188.8367917 -0.123391E-07  0.324E-04    3.02      29.0  T
     SCC iter.                  ...        0 min,  0.638 sec
     gradient                   ...        0 min,  0.189 sec
 * total energy  :  -186.5374199 Eh     change       -0.2944868E-03 Eh
   gradient norm :     0.0039750 Eh/α   predicted    -0.3921512E-03 (  33.16%)
   displ. norm   :     0.0992651 α      lambda       -0.7171915E-04
   maximum displ.:     0.0680268 α      in ANC's #3, #4, #7, ...

........................................................................
.............................. CYCLE   32 ..............................
........................................................................

 iter      E             dE          RMSdq      gap      omega  full diag
   1   -188.8372314 -0.188837E+03  0.124E-02    3.02       0.0  T
   2   -188.8372319 -0.455039E-06  0.738E-03    3.02       1.3  T
   3   -188.8372314  0.435830E-06  0.242E-03    3.02       3.9  T
   4   -188.8372319 -0.518125E-06  0.755E-04    3.02      12.5  T
   5   -188.8372320 -0.457595E-07  0.292E-04    3.02      32.2  T
     SCC iter.                  ...        0 min,  0.460 sec
     gradient                   ...        0 min,  0.188 sec
 * total energy  :  -186.5374855 Eh     change       -0.6562539E-04 Eh
   gradient norm :     0.0030236 Eh/α   predicted    -0.3621969E-04 ( -44.81%)
   displ. norm   :     0.4164056 α      lambda       -0.2590419E-03
   maximum displ.:     0.2799645 α      in ANC's #3, #4, #7, ...

........................................................................
.............................. CYCLE   33 ..............................
........................................................................

 iter      E             dE          RMSdq      gap      omega  full diag
   1   -188.8366770 -0.188837E+03  0.510E-02    3.04       0.0  T
   2   -188.8366835 -0.651644E-05  0.303E-02    3.05       1.0  T
   3   -188.8366755  0.800499E-05  0.994E-03    3.05       1.0  T
   4   -188.8366849 -0.940854E-05  0.297E-03    3.05       3.2  T
   5   -188.8366855 -0.674785E-06  0.120E-03    3.05       7.9  T
   6   -188.8366856 -0.461685E-07  0.565E-04    3.05      16.6  T
   7   -188.8366856 -0.102179E-07  0.235E-04    3.05      40.0  T
     SCC iter.                  ...        0 min,  0.639 sec
     gradient                   ...        0 min,  0.188 sec
 * total energy  :  -186.5376512 Eh     change       -0.1657614E-03 Eh
   gradient norm :     0.0060118 Eh/α   predicted    -0.1519780E-03 (  -8.32%)
   displ. norm   :     0.2098017 α      lambda       -0.8573093E-04
   maximum displ.:     0.1379277 α      in ANC's #3, #4, #7, ...

........................................................................
.............................. CYCLE   34 ..............................
........................................................................

 iter      E             dE          RMSdq      gap      omega  full diag
   1   -188.8368262 -0.188837E+03  0.242E-02    3.06       0.0  T
   2   -188.8368267 -0.538028E-06  0.143E-02    3.06       1.0  T
   3   -188.8368261  0.610668E-06  0.262E-03    3.06       3.6  T
   4   -188.8368269 -0.771261E-06  0.814E-04    3.06      11.6  T
   5   -188.8368269 -0.365346E-07  0.438E-04    3.06      21.5  T
     SCC iter.                  ...        0 min,  0.458 sec
     gradient                   ...        0 min,  0.189 sec
 * total energy  :  -186.5377186 Eh     change       -0.6739668E-04 Eh
   gradient norm :     0.0048155 Eh/α   predicted    -0.4475335E-04 ( -33.60%)
   displ. norm   :     0.2422359 α      lambda       -0.1027624E-03
   maximum displ.:     0.1557457 α      in ANC's #3, #4, #7, ...

........................................................................
.............................. CYCLE   35 ..............................
........................................................................

 iter      E             dE          RMSdq      gap      omega  full diag
   1   -188.8375716 -0.188838E+03  0.277E-02    3.06       0.0  T
   2   -188.8375722 -0.626502E-06  0.164E-02    3.06       1.0  T
   3   -188.8375720  0.284646E-06  0.208E-03    3.07       4.5  T
   4   -188.8375724 -0.471223E-06  0.734E-04    3.07      12.8  T
   5   -188.8375724 -0.216521E-07  0.428E-04    3.07      22.0  T
     SCC iter.                  ...        0 min,  0.459 sec
     gradient                   ...        0 min,  0.189 sec
 * total energy  :  -186.5377923 Eh     change       -0.7366188E-04 Eh
   gradient norm :     0.0030587 Eh/α   predicted    -0.5440083E-04 ( -26.15%)
   displ. norm   :     0.3204708 α      lambda       -0.8090842E-04
   maximum displ.:     0.2194054 α      in ANC's #3, #4, #7, ...

........................................................................
.............................. CYCLE   36 ..............................
........................................................................

 iter      E             dE          RMSdq      gap      omega  full diag
   1   -188.8366569 -0.188837E+03  0.363E-02    3.08       0.0  T
   2   -188.8366584 -0.150308E-05  0.215E-02    3.07       1.0  T
   3   -188.8366574  0.100539E-05  0.366E-03    3.08       2.6  T
   4   -188.8366587 -0.129894E-05  0.140E-03    3.08       6.7  T
   5   -188.8366589 -0.126876E-06  0.685E-04    3.08      13.7  T
   6   -188.8366589 -0.134489E-07  0.315E-04    3.08      29.9  T
     SCC iter.                  ...        0 min,  0.549 sec
     gradient                   ...        0 min,  0.189 sec
 * total energy  :  -186.5378420 Eh     change       -0.4966038E-04 Eh
   gradient norm :     0.0024330 Eh/α   predicted    -0.4461125E-04 ( -10.17%)
   displ. norm   :     0.1455763 α      lambda       -0.4805682E-04
   maximum displ.:     0.0815062 α      in ANC's #3, #4, #7, ...

........................................................................
.............................. CYCLE   37 ..............................
........................................................................

 iter      E             dE          RMSdq      gap      omega  full diag
   1   -188.8376782 -0.188838E+03  0.164E-02    3.08       0.0  T
   2   -188.8376787 -0.476261E-06  0.967E-03    3.08       1.0  T
   3   -188.8376786  0.831625E-07  0.146E-03    3.08       6.4  T
   4   -188.8376788 -0.159857E-06  0.479E-04    3.08      19.6  T
   5   -188.8376788 -0.103805E-07  0.269E-04    3.08      35.0  T
     SCC iter.                  ...        0 min,  0.458 sec
     gradient                   ...        0 min,  0.189 sec
 * total energy  :  -186.5378717 Eh     change       -0.2968325E-04 Eh
   gradient norm :     0.0024820 Eh/α   predicted    -0.2454140E-04 ( -17.32%)
   displ. norm   :     0.1174049 α      lambda       -0.2383182E-04
   maximum displ.:     0.0689405 α      in ANC's #3, #4, #7, ...

........................................................................
.............................. CYCLE   38 ..............................
........................................................................

 iter      E             dE          RMSdq      gap      omega  full diag
   1   -188.8379438 -0.188838E+03  0.126E-02    3.08       0.0  T
   2   -188.8379440 -0.168033E-06  0.747E-03    3.08       1.3  T
   3   -188.8379438  0.202714E-06  0.152E-03    3.08       6.2  T
   4   -188.8379440 -0.238972E-06  0.496E-04    3.08      19.0  T
   5   -188.8379440 -0.181514E-07  0.216E-04    3.08      43.6  T
     SCC iter.                  ...        0 min,  0.459 sec
     gradient                   ...        0 min,  0.188 sec
 * total energy  :  -186.5378908 Eh     change       -0.1911821E-04 Eh
   gradient norm :     0.0021177 Eh/α   predicted    -0.1208084E-04 ( -36.81%)
   displ. norm   :     0.1481733 α      lambda       -0.3524478E-04
   maximum displ.:     0.0636804 α      in ANC's #3, #4, #10, ...

........................................................................
.............................. CYCLE   39 ..............................
........................................................................

 iter      E             dE          RMSdq      gap      omega  full diag
   1   -188.8383539 -0.188838E+03  0.166E-02    3.08       0.0  T
   2   -188.8383543 -0.444571E-06  0.981E-03    3.08       1.0  T
   3   -188.8383538  0.480140E-06  0.228E-03    3.08       4.1  T
   4   -188.8383544 -0.580208E-06  0.586E-04    3.08      16.0  T
   5   -188.8383545 -0.291828E-07  0.280E-04    3.08      33.6  T
     SCC iter.                  ...        0 min,  0.459 sec
     gradient                   ...        0 min,  0.189 sec
 * total energy  :  -186.5379149 Eh     change       -0.2414546E-04 Eh
   gradient norm :     0.0016026 Eh/α   predicted    -0.1801222E-04 ( -25.40%)
   displ. norm   :     0.1447614 α      lambda       -0.1622759E-04
   maximum displ.:     0.0590404 α      in ANC's #4, #10, #3, ...

........................................................................
.............................. CYCLE   40 ..............................
........................................................................

 iter      E             dE          RMSdq      gap      omega  full diag
   1   -188.8381812 -0.188838E+03  0.174E-02    3.08       0.0  T
   2   -188.8381816 -0.437082E-06  0.102E-02    3.07       1.0  T
   3   -188.8381811  0.484650E-06  0.227E-03    3.08       4.1  T
   4   -188.8381817 -0.597247E-06  0.515E-04    3.08      18.3  T
   5   -188.8381818 -0.217181E-07  0.259E-04    3.08      36.3  T
     SCC iter.                  ...        0 min,  0.459 sec
     gradient                   ...        0 min,  0.189 sec
 * total energy  :  -186.5379300 Eh     change       -0.1509905E-04 Eh
   gradient norm :     0.0013391 Eh/α   predicted    -0.8193431E-05 ( -45.74%)
   displ. norm   :     0.0750609 α      lambda       -0.1047555E-04
   maximum displ.:     0.0349092 α      in ANC's #4, #10, #1, ...

........................................................................
.............................. CYCLE   41 ..............................
........................................................................

 iter      E             dE          RMSdq      gap      omega  full diag
   1   -188.8380053 -0.188838E+03  0.995E-03    3.07       0.0  T
   2   -188.8380054 -0.913037E-07  0.583E-03    3.08       1.6  T
   3   -188.8380053  0.672266E-07  0.949E-04    3.08       9.9  T
   4   -188.8380054 -0.839693E-07  0.326E-04    3.08      28.8  T
     SCC iter.                  ...        0 min,  0.369 sec
     gradient                   ...        0 min,  0.189 sec
 * total energy  :  -186.5379429 Eh     change       -0.1285446E-04 Eh
   gradient norm :     0.0011146 Eh/α   predicted    -0.5254917E-05 ( -59.12%)
   displ. norm   :     0.1314057 α      lambda       -0.1608094E-04
   maximum displ.:     0.0642917 α      in ANC's #4, #10, #1, ...

........................................................................
.............................. CYCLE   42 ..............................
........................................................................

 iter      E             dE          RMSdq      gap      omega  full diag
   1   -188.8377474 -0.188838E+03  0.167E-02    3.08       0.0  T
   2   -188.8377476 -0.192784E-06  0.980E-03    3.08       1.0  T
   3   -188.8377474  0.127895E-06  0.138E-03    3.08       6.8  T
   4   -188.8377476 -0.161960E-06  0.553E-04    3.08      17.0  T
   5   -188.8377476 -0.205880E-07  0.232E-04    3.08      40.5  T
     SCC iter.                  ...        0 min,  0.460 sec
     gradient                   ...        0 min,  0.189 sec
 * total energy  :  -186.5379579 Eh     change       -0.1498748E-04 Eh
   gradient norm :     0.0010633 Eh/α   predicted    -0.8103202E-05 ( -45.93%)
   displ. norm   :     0.0844187 α      lambda       -0.6309439E-05
   maximum displ.:     0.0449882 α      in ANC's #4, #10, #3, ...
 * RMSD in coord.:     0.3157732 α      energy gain  -0.1944777E-02 Eh

generating ANC from exact Hessian ...
Using Lindh-Hessian (1995)
 Shifting diagonal of input Hessian by    9.9756710790918825E-003
 Lowest  eigenvalues of input Hessian
    0.000000    0.000000    0.000000    0.000000    0.000000    0.000000
    0.010000    0.010103    0.010197    0.010262    0.010354    0.010458
    0.010495    0.010551    0.010742    0.010936    0.010984    0.011001
 Highest eigenvalues
    2.112969    2.317250    2.346152    2.351435    2.372934    2.386297


........................................................................
.............................. CYCLE   43 ..............................
........................................................................

 iter      E             dE          RMSdq      gap      omega  full diag
   1   -188.8375107 -0.188838E+03  0.109E-02    3.07       0.0  T
   2   -188.8375108 -0.109724E-06  0.643E-03    3.07       1.5  T
   3   -188.8375107  0.547053E-07  0.872E-04    3.07      10.8  T
   4   -188.8375108 -0.749446E-07  0.291E-04    3.07      32.3  T
     SCC iter.                  ...        0 min,  0.369 sec
     gradient                   ...        0 min,  0.189 sec
 * total energy  :  -186.5379635 Eh     change       -0.5680662E-05 Eh
   gradient norm :     0.0012877 Eh/α   predicted     0.0000000E+00 (-100.00%)
   displ. norm   :     0.0227227 α      lambda       -0.6240286E-05
   maximum displ.:     0.0072954 α      in ANC's #4, #3, #1, ...

........................................................................
.............................. CYCLE   44 ..............................
........................................................................

 iter      E             dE          RMSdq      gap      omega  full diag
   1   -188.8378783 -0.188838E+03  0.454E-03    3.07       0.0  T
   2   -188.8378784 -0.545816E-07  0.272E-03    3.07       3.5  T
   3   -188.8378783  0.548366E-07  0.817E-04    3.07      11.5  T
   4   -188.8378784 -0.632167E-07  0.252E-04    3.07      37.4  T
     SCC iter.                  ...        0 min,  0.368 sec
     gradient                   ...        0 min,  0.189 sec
 * total energy  :  -186.5379695 Eh     change       -0.5934872E-05 Eh
   gradient norm :     0.0007085 Eh/α   predicted    -0.3263644E-05 ( -45.01%)
   displ. norm   :     0.0462599 α      lambda       -0.7324636E-05
   maximum displ.:     0.0156019 α      in ANC's #4, #3, #1, ...

........................................................................
.............................. CYCLE   45 ..............................
........................................................................

 iter      E             dE          RMSdq      gap      omega  full diag
   1   -188.8381508 -0.188838E+03  0.652E-03    3.07       0.0  T
   2   -188.8381509 -0.986106E-07  0.389E-03    3.07       2.4  T
   3   -188.8381508  0.107692E-06  0.115E-03    3.07       8.2  T
   4   -188.8381509 -0.131005E-06  0.335E-04    3.07      28.1  T
   5   -188.8381509 -0.768827E-08  0.163E-04    3.07      57.7  T
     SCC iter.                  ...        0 min,  0.458 sec
     gradient                   ...        0 min,  0.189 sec
 * total energy  :  -186.5379769 Eh     change       -0.7478683E-05 Eh
   gradient norm :     0.0013604 Eh/α   predicted    -0.3666139E-05 ( -50.98%)
   displ. norm   :     0.0569000 α      lambda       -0.5623954E-05
   maximum displ.:     0.0209466 α      in ANC's #1, #3, #4, ...

........................................................................
.............................. CYCLE   46 ..............................
........................................................................

 iter      E             dE          RMSdq      gap      omega  full diag
   1   -188.8379116 -0.188838E+03  0.795E-03    3.06       0.0  T
   2   -188.8379117 -0.142943E-06  0.471E-03    3.06       2.0  T
   3   -188.8379116  0.146526E-06  0.131E-03    3.06       7.2  T
   4   -188.8379118 -0.179011E-06  0.368E-04    3.06      25.5  T
   5   -188.8379118 -0.847206E-08  0.185E-04    3.06      50.8  T
     SCC iter.                  ...        0 min,  0.459 sec
     gradient                   ...        0 min,  0.189 sec
 * total energy  :  -186.5379826 Eh     change       -0.5696080E-05 Eh
   gradient norm :     0.0009740 Eh/α   predicted    -0.2816683E-05 ( -50.55%)
   displ. norm   :     0.0569000 α      lambda        0.0000000E+00
   maximum displ.:     0.0209466 α      in ANC's #1, #3, #4, ...

........................................................................
.............................. CYCLE   47 ..............................
........................................................................

 iter      E             dE          RMSdq      gap      omega  full diag
   1   -188.8376135 -0.188838E+03  0.797E-03    3.05       0.0  T
   2   -188.8376137 -0.143540E-06  0.473E-03    3.06       2.0  T
   3   -188.8376135  0.142728E-06  0.130E-03    3.05       7.3  T
   4   -188.8376137 -0.175418E-06  0.361E-04    3.05      26.0  T
   5   -188.8376137 -0.811318E-08  0.184E-04    3.05      51.2  T
     SCC iter.                  ...        0 min,  0.459 sec
     gradient                   ...        0 min,  0.189 sec
 * total energy  :  -186.5379828 Eh     change       -0.2041437E-06 Eh
   gradient norm :     0.0012799 Eh/α   predicted    -0.1353941E-08 ( -99.34%)
   displ. norm   :     0.0149922 α      lambda       -0.3338744E-05
   maximum displ.:     0.0066407 α      in ANC's #23, #49, #48, ...

........................................................................
.............................. CYCLE   48 ..............................
........................................................................

 iter      E             dE          RMSdq      gap      omega  full diag
   1   -188.8379036 -0.188838E+03  0.273E-03    3.06       0.0  T
   2   -188.8379036 -0.375708E-07  0.163E-03    3.06       5.8  T
   3   -188.8379036  0.155476E-07  0.526E-04    3.06      17.9  T
   4   -188.8379036 -0.197857E-07  0.168E-04    3.06      55.8  T
     SCC iter.                  ...        0 min,  0.369 sec
     gradient                   ...        0 min,  0.189 sec
 * total energy  :  -186.5379861 Eh     change       -0.3260378E-05 Eh
   gradient norm :     0.0005422 Eh/α   predicted    -0.1685376E-05 ( -48.31%)
   displ. norm   :     0.0162269 α      lambda        0.4196813E-06
   maximum displ.:     0.0071979 α      in ANC's #23, #49, #48, ...

   *** GEOMETRY OPTIMIZATION CONVERGED AFTER 48 ITERATIONS ***

------------------------------------------------------------------------
 total energy gain   :        -0.0375370 Eh      -23.5548 kcal/mol
 total RMSD          :         0.8773268 a0        0.4643 Å
 total power (kW/mol):        -2.0531946 (step)   -2.4768 (real)
------------------------------------------------------------------------

 ANCopt (total)                0 d,  0 h,  0 min, 39.791 sec
 optimizer setup                ...        0 min,  0.000 sec (  0.001%)
 model hessian                  ...        0 min,  0.488 sec (  1.226%)
 ANC generation                 ...        0 min,  0.201 sec (  0.505%)
 coordinate transformation      ...        0 min,  0.010 sec (  0.024%)
 single point calculation       ...        0 min, 38.992 sec ( 97.992%)
 optimization log               ...        0 min,  0.012 sec (  0.029%)
 hessian update                 ...        0 min,  0.004 sec (  0.011%)
 rational function              ...        0 min,  0.029 sec (  0.072%)

================
 final structure:
================
113
 xtb: 6.7.1 (b9eb0ff)
C           -2.32265014581465       -2.22044717237748       -0.21076684593391
C           -1.04909040251522       -2.44508493952314       -0.57507436458154
C           -0.60920306383345       -2.74599879253567       -1.97044886247451
H           -0.43004288042162       -1.81611520329474       -2.51597872158528
H           -1.35736592307530       -3.32293005164791       -2.50590141536345
H            0.32231093302740       -3.30554183255460       -1.95729410132831
C            0.00916586106575       -2.20072962507781        0.46413115164067
C           -0.27200425106924       -0.80903557895874        1.04599010906153
H           -0.05974546656041       -0.07048461916323        0.27291413061841
H            0.39250495604291       -0.62001227699686        1.89020620812327
C           -1.72152954151217       -0.64181420445908        1.55139325035271
O           -1.59007822504439       -0.44898361216962        2.94101213530041
H           -2.41994537354304       -0.13586344875988        3.32417350080041
C           -2.60315564585261       -1.90586222690124        1.25076288517341
C           -4.04758767196004       -1.59561965841340        1.65764471966404
H           -4.49267552111270       -0.78443532462656        1.10133714771102
H           -4.68262475696774       -2.46638416268792        1.54635340756896
H           -4.05850337256389       -1.32267877833064        2.71299475707742
C           -2.17665743323119       -3.08873227191645        2.16376707053666
H           -1.42672572787309       -2.76969982346140        2.88241507508050
H           -1.79548379734951       -3.92908309549457        1.59008911768679
H           -3.03062176351038       -3.44594644383683        2.73390608987420
C           -2.35204351763581        0.67028940411739        0.96036706137898
H           -3.26734249281695        0.89259664742091        1.52144454893212
O           -1.40537527507465        1.67948674727079        1.32535143540180
C           -1.62910228989793        2.35698738817115        2.46172665875704
O           -2.62692326349297        2.22454240437949        3.13238489952029
C           -0.52482123948217        3.28674719803328        2.77621230567469
C           -0.50651222352236        3.89943969705547        4.02701114320214
C            0.51781224478639        4.76673326449040        4.35605761974631
C            1.52340854406606        5.03023840251379        3.43908025968781
C            1.50463333377048        4.42784824905748        2.19031653271320
C            0.48597316282072        3.55518446969664        1.85501790798828
H            0.45467659581029        3.08595354963880        0.88408761701947
H            2.28917021824359        4.63836776176610        1.47864692617411
H            2.32321902461468        5.70871126443489        3.69599086602852
H            0.53393831188959        5.23919972661120        5.32649497991558
H           -1.30057810682638        3.67904797952527        4.72384724504571
C           -2.63155924295494        0.77231538170960       -0.57275852900516
H           -1.95607394239240        0.07705315256587       -1.07276588645237
C           -2.18170035593574        2.17503725215182       -1.04733961376077
C           -2.65181896783311        3.41888069419271       -0.27401510122438
H           -3.32306192542438        3.26081340751492        0.57013535704458
H           -1.82446969202477        4.06849777362899        0.02464389344628
O           -3.33885505488912        3.92200805033265       -1.41195177583297
C           -2.86968195365515        2.86109319668427       -2.25285763464984
C           -3.98770132136032        2.15960762206035       -2.99431026134545
H           -3.82381757316297        2.20142257050309       -4.07019124066206
H           -4.92309058402185        2.68004543596114       -2.78737034099927
C           -4.16030550738158        0.68857163223557       -2.62200416000067
O           -5.39738355654873        0.34189714504841       -3.16986206781266
H           -5.67403728935848       -0.54599156981481       -2.90795758017771
H           -3.34674483374900        0.11564717587083       -3.09566354411043
C           -4.07269300699078        0.43713376564460       -1.05768979090915
C           -4.44654134765236       -1.05189339552433       -1.02516181093801
O           -5.60428501110552       -1.40483439505453       -1.03350506482581
C           -3.32447680454138       -2.03452976228065       -1.33127215533988
H           -2.76133958221913       -1.54825045690843       -2.14285430323728
O           -3.76855422413660       -3.19358295276919       -2.03471017123288
C           -4.46099719334147       -4.27087734533381       -1.61630015179048
O           -4.69791359199122       -5.11053504781087       -2.43938544275890
C           -4.87523282048128       -4.37409629662982       -0.17896673884808
H           -5.32552007836860       -5.34935407728994       -0.01770450941906
H           -5.61207361189348       -3.60058385316573        0.02592243520728
H           -4.01055773955311       -4.25468827830019        0.46741679662362
C           -5.17798963200950        1.26217393306206       -0.39173929728893
H           -5.21781638967691        1.11181156472903        0.68463717632818
H           -5.04513800699542        2.32000538917555       -0.58589381826215
H           -6.13604454977383        0.95691335869224       -0.80734404910418
H           -2.11534816865362        3.24490082814361       -2.95062450891178
O           -0.75958562099458        2.22371964554045       -1.18551476660593
C           -0.16883241576427        1.51072198150033       -2.16092670011529
O           -0.73821424866170        0.67665028111949       -2.81854365125332
C            1.26494726665574        1.91494553887898       -2.31123584584462
H            1.82710299497494        1.16111990872167       -2.85923139324247
H            1.71129850057072        2.11263789806208       -1.34024342764793
H            1.29317319026113        2.84056118684480       -2.88486651541703
H            0.00573891693257       -2.94333542221906        1.26402856662148
O            1.32629453243977       -2.23935130032880       -0.10894809419555
C            2.27129159583548       -2.80219375738889        0.63107840534460
O            2.12258181760197       -3.23253837941531        1.74737796265584
C            3.62401323668506       -2.88450799674269       -0.06615971241136
O            4.47639848601982       -3.68922838282047        0.68584257472734
H            4.07388033137005       -3.80196309275439        1.56408117184085
H            3.49969903714559       -3.33194319776131       -1.06175570446654
C            4.22004995808236       -1.45098460849420       -0.24921430100446
N            3.59520802366293       -0.80931214958492       -1.37416744977020
C            4.19928988358017       -0.26738743180391       -2.46055091385797
O            3.54289145560663        0.06280273706219       -3.43167564338971
C            5.67305585057279       -0.06700626862922       -2.38872580059981
C            6.26408732506204        0.59487655997009       -1.31662969584587
C            7.63060690608519        0.80933008647629       -1.30741816823122
C            8.41312293741075        0.36420369122040       -2.36028296732494
C            7.82559089000114       -0.28152893148581       -3.43573537177358
C            6.45839028896258       -0.48778644791520       -3.45629882833217
H            5.98541882227453       -0.97746384465691       -4.29407108926831
H            8.43297169632434       -0.61962307161132       -4.26179809322895
H            9.48032660366419        0.52813809199467       -2.34577026900057
H            8.08551614229247        1.32564416880121       -0.47511410853573
H            5.65396050289414        0.95466680262505       -0.50052550911172
H            2.59346872152754       -0.93742379687677       -1.45503982424760
C            4.07524040615780       -0.67754407520928        1.04395805160045
C            3.06541925802152        0.25822572114178        1.22242969044729
C            2.91765140382275        0.90759590719838        2.43598405756007
C            3.78111372072719        0.62986002473117        3.48113678214085
C            4.79771539116885       -0.29419232448181        3.30632560409210
C            4.94597703004981       -0.94355968126443        2.09404403029063
H            5.73675812227783       -1.66578616437902        1.95600599806180
H            5.47784798892166       -0.51044324559218        4.11640038437592
H            3.66124853862898        1.13472007596211        4.42776520803872
H            2.12385464938966        1.62861314592523        2.56536359187396
H            2.39440966218823        0.48575545614826        0.40823710726096
H            5.28363993311837       -1.59646580483670       -0.46794087775205

 Bond Distances (Angstroems)
 ---------------------------
C1-C2=1.3436         C1-C14=1.5211        C1-C57=1.5145        C2-C1=1.3436         C2-C3=1.4937         C2-C7=1.5032         
C3-C2=1.4937         C3-H4=1.0929         C3-H5=1.0860         C3-H6=1.0867         H4-C3=1.0929         H5-C3=1.0860         
H6-C3=1.0867         C7-C2=1.5032         C7-C8=1.5344         C7-H78=1.0915        C7-O79=1.4369        C8-C7=1.5344         
C8-H9=1.0900         C8-H10=1.0909        C8-C11=1.5442        H9-C8=1.0900         H10-C8=1.0909        C11-C8=1.5442        
C11-O12=1.4091       C11-C14=1.5702       C11-C23=1.5711       O12-C11=1.4091       O12-H13=0.9662       H13-O12=0.9662       
C14-C1=1.5211        C14-C11=1.5702       C14-C15=1.5324       C14-C19=1.5539       C15-C14=1.5324       C15-H16=1.0796       
C15-H17=1.0835       C15-H18=1.0901       H16-C15=1.0796       H17-C15=1.0835       H18-C15=1.0901       C19-C14=1.5539       
C19-H20=1.0866       C19-H21=1.0865       C19-H22=1.0872       H20-C19=1.0866       H21-C19=1.0865       H22-C19=1.0872       
C23-C11=1.5711       C23-H24=1.0964       C23-O25=1.4310       C23-C39=1.5617       H24-C23=1.0964       O25-C23=1.4310       
O25-C26=1.3418       C26-O25=1.3418       C26-O27=1.2095       C26-C28=1.4774       O27-C26=1.2095       C28-C26=1.4774       
C28-C29=1.3929       C28-C33=1.3937       C29-C28=1.3929       C29-C30=1.3819       C29-H38=1.0792       C30-C29=1.3819       
C30-C31=1.3862       C30-H37=1.0795       C31-C30=1.3862       C31-C32=1.3866       C31-H36=1.0798       C32-C31=1.3866       
C32-C33=1.3826       C32-H35=1.0799       C33-C28=1.3937       C33-C32=1.3826       C33-H34=1.0788       H34-C33=1.0788       
H35-C32=1.0799       H36-C31=1.0798       H37-C30=1.0795       H38-C29=1.0792       C39-C23=1.5617       C39-H40=1.0907       
C39-C41=1.5477       C39-C54=1.5570       H40-C39=1.0907       C41-C39=1.5477       C41-C42=1.5382       C41-C46=1.5483       
C41-O71=1.4296       C42-C41=1.5382       C42-H43=1.0900       C42-H44=1.0935       C42-O45=1.4213       H43-C42=1.0900       
H44-C42=1.0935       O45-C42=1.4213       O45-C46=1.4328       C46-C41=1.5483       C46-O45=1.4328       C46-C47=1.5139       
C46-H70=1.0969       C47-C46=1.5139       C47-H48=1.0891       C47-H49=1.0902       C47-C50=1.5272       H48-C47=1.0891       
H49-C47=1.0902       C50-C47=1.5272       C50-O51=1.3967       C50-H53=1.1020       C50-C54=1.5868       O51-C50=1.3967       
O51-H52=0.9662       H52-O51=0.9662       H53-C50=1.1020       C54-C39=1.5570       C54-C50=1.5868       C54-C55=1.5356       
C54-C66=1.5316       C55-C54=1.5356       C55-O56=1.2104       C55-C57=1.5226       O56-C55=1.2104       C57-C1=1.5145        
C57-C55=1.5226       C57-H58=1.1010       C57-O59=1.4267       H58-C57=1.1010       O59-C57=1.4267       O59-C60=1.3473       
C60-O59=1.3473       C60-O61=1.1994       C60-C62=1.4994       O61-C60=1.1994       C62-C60=1.4994       C62-H63=1.0862       
C62-H64=1.0878       C62-H65=1.0862       H63-C62=1.0862       H64-C62=1.0878       H65-C62=1.0862       C66-C54=1.5316       
C66-H67=1.0876       C66-H68=1.0837       C66-H69=1.0880       H67-C66=1.0876       H68-C66=1.0837       H69-C66=1.0880       
H70-C46=1.0969       O71-C41=1.4296       O71-C72=1.3449       C72-O71=1.3449       C72-O73=1.2051       C72-C74=1.4972       
O73-C72=1.2051       C74-C72=1.4972       C74-H75=1.0884       C74-H76=1.0868       C74-H77=1.0893       H75-C74=1.0884       
H76-C74=1.0868       H77-C74=1.0893       H78-C7=1.0915        O79-C7=1.4369        O79-C80=1.3257       C80-O79=1.3257       
C80-O81=1.2056       C80-C82=1.5241       O81-C80=1.2056       C82-C80=1.5241       C82-O83=1.3927       C82-H85=1.0986       
C82-C86=1.5633       O83-C82=1.3927       O83-H84=0.9726       H84-O83=0.9726       H85-C82=1.0986       C86-C82=1.5633       
C86-N87=1.4379       C86-C102=1.5138      C86-H113=1.0956      N87-C86=1.4379       N87-C88=1.3560       N87-H101=1.0131      
C88-N87=1.3560       C88-O89=1.2178       C88-C90=1.4891       O89-C88=1.2178       C90-C88=1.4891       C90-C91=1.3917       
C90-C95=1.3905       C91-C90=1.3917       C91-C92=1.3833       C91-H100=1.0806      C92-C91=1.3833       C92-C93=1.3853       
C92-H99=1.0799       C93-C92=1.3853       C93-C94=1.3852       C93-H98=1.0798       C94-C93=1.3852       C94-C95=1.3828       
C94-H97=1.0796       C95-C90=1.3905       C95-C94=1.3828       C95-H96=1.0795       H96-C95=1.0795       H97-C94=1.0796       
H98-C93=1.0798       H99-C92=1.0799       H100-C91=1.0806      H101-N87=1.0131      C102-C86=1.5138      C102-C103=1.3883     
C102-C107=1.3898     C103-C102=1.3883     C103-C104=1.3843     C103-H112=1.0793     C104-C103=1.3843     C104-C105=1.3839     
C104-H111=1.0801     C105-C104=1.3839     C105-C106=1.3849     C105-H110=1.0795     C106-C105=1.3849     C106-C107=1.3832     
C106-H109=1.0796     C107-C102=1.3898     C107-C106=1.3832     C107-H108=1.0798     H108-C107=1.0798     H109-C106=1.0796     
H110-C105=1.0795     H111-C104=1.0801     H112-C103=1.0793     H113-C86=1.0956      
 C  H  Rav=1.0867 sigma=0.0063  Rmin=1.0788  Rmax=1.1020    47
 C  C  Rav=1.4718 sigma=0.0753  Rmin=1.3436  Rmax=1.5868    47
 N  H  Rav=1.0131 sigma=0.0000  Rmin=1.0131  Rmax=1.0131     1
 N  C  Rav=1.3970 sigma=0.0410  Rmin=1.3560  Rmax=1.4379     2
 O  H  Rav=0.9683 sigma=0.0030  Rmin=0.9662  Rmax=0.9726     3
 O  C  Rav=1.3360 sigma=0.0929  Rmin=1.1994  Rmax=1.4369    19

 selected bond angles (degree)
 --------------------
C14-C1-C2=118.03               C57-C1-C2=116.55               C57-C1-C14=124.30              C3-C2-C1=124.48                
C7-C2-C1=116.92                C7-C2-C3=118.12                H4-C3-C2=110.07                H5-C3-C2=111.39                
H5-C3-H4=108.59                H6-C3-C2=110.17                H6-C3-H4=107.68                H6-C3-H5=108.84                
C8-C7-C2=106.30                H78-C7-C2=113.19               H78-C7-C8=109.79               O79-C7-C2=111.42               
O79-C7-C8=110.10               O79-C7-H78=106.07              H9-C8-C7=108.05                H10-C8-C7=109.82               
H10-C8-H9=108.23               C11-C8-C7=113.22               C11-C8-H9=109.97               C11-C8-H10=107.44              

 selected dihedral angles (degree)
 ---------------------------------
C3-C2-C1-C14=180.92           C3-C2-C1-C57=349.33           C7-C2-C1-C14=352.75           C7-C2-C1-C57=161.15           
H4-C3-C2-C1= 86.61            H4-C3-C2-C7=274.87            H5-C3-C2-C1=326.10            H5-C3-C2-C7=154.36            
H6-C3-C2-C1=205.20            H6-C3-C2-C7= 33.47            C8-C7-C2-C1=310.44            C8-C7-C2-C3=122.81            
H78-C7-C2-C1= 71.04           H78-C7-C2-C3=243.41           O79-C7-C2-C1=190.50           O79-C7-C2-C3=  2.86           
H9-C8-C7-C2=291.20            H9-C8-C7-H78=168.43           H9-C8-C7-O79= 52.01           H10-C8-C7-C2=173.35           
H10-C8-C7-H78= 50.58          H10-C8-C7-O79=294.16          C11-C8-C7-C2= 53.26           C11-C8-C7-H78=290.49          
C11-C8-C7-O79=174.07          
           -------------------------------------------------
          |                Final Singlepoint                |
           -------------------------------------------------

          ...................................................
          :                      SETUP                      :
          :.................................................:
          :  # basis functions                 299          :
          :  # atomic orbitals                 299          :
          :  # shells                          175          :
          :  # electrons                       328          :
          :  max. iterations                   250          :
          :  Hamiltonian                  GFN2-xTB          :
          :  restarted?                      false          :
          :  GBSA solvation                  false          :
          :  PC potential                    false          :
          :  electronic temp.          300.0000000     K    :
          :  accuracy                    1.0000000          :
          :  -> integral cutoff          0.2500000E+02      :
          :  -> integral neglect         0.1000000E-07      :
          :  -> SCF convergence          0.1000000E-05 Eh   :
          :  -> wf. convergence          0.1000000E-03 e    :
          :  Broyden damping             0.4000000          :
          :  net charge                          0          :
          :  unpaired electrons                  0          :
          ...................................................

 iter      E             dE          RMSdq      gap      omega  full diag
   1   -188.8379036 -0.188838E+03  0.727E-05    3.06       0.0  T
   2   -188.8379036 -0.233058E-11  0.632E-05    3.06     148.8  T
   3   -188.8379036 -0.300076E-09  0.264E-05    3.06     356.7  T

   *** convergence criteria satisfied after 3 iterations ***

         #    Occupation            Energy/Eh            Energy/eV
      -------------------------------------------------------------
         1        2.0000           -0.7802581             -21.2319
       ...           ...                  ...                  ...
       158        2.0000           -0.4216677             -11.4742
       159        2.0000           -0.4189486             -11.4002
       160        2.0000           -0.4160574             -11.3215
       161        2.0000           -0.4129223             -11.2362
       162        2.0000           -0.4113097             -11.1923
       163        2.0000           -0.4094404             -11.1414
       164        2.0000           -0.4032881             -10.9740 (HOMO)
       165                         -0.2909110              -7.9161 (LUMO)
       166                         -0.2873386              -7.8189
       167                         -0.2679414              -7.2911
       168                         -0.2594266              -7.0594
       169                         -0.2552981              -6.9470
       ...                                ...                  ...
       299                          0.6724166              18.2974
      -------------------------------------------------------------
                  HL-Gap            0.1123772 Eh            3.0579 eV
             Fermi-level           -0.3470995 Eh           -9.4451 eV

 SCC (total)                   0 d,  0 h,  0 min,  0.540 sec
 SCC setup                      ...        0 min,  0.001 sec (  0.252%)
 Dispersion                     ...        0 min,  0.003 sec (  0.606%)
 classical contributions        ...        0 min,  0.001 sec (  0.111%)
 integral evaluation            ...        0 min,  0.048 sec (  8.971%)
 iterations                     ...        0 min,  0.280 sec ( 51.848%)
 molecular gradient             ...        0 min,  0.189 sec ( 34.961%)
 printout                       ...        0 min,  0.018 sec (  3.251%)

         :::::::::::::::::::::::::::::::::::::::::::::::::::::
         ::                     SUMMARY                     ::
         :::::::::::::::::::::::::::::::::::::::::::::::::::::
         :: total energy            -186.537986112576 Eh    ::
         :: gradient norm              0.000544076836 Eh/a0 ::
         :: HOMO-LUMO gap              3.057938028361 eV    ::
         ::.................................................::
         :: SCC energy              -188.827786424413 Eh    ::
         :: -> isotropic ES            0.330727920575 Eh    ::
         :: -> anisotropic ES         -0.001367722720 Eh    ::
         :: -> anisotropic XC          0.038410997907 Eh    ::
         :: -> dispersion             -0.163608742514 Eh    ::
         :: repulsion energy           2.289800311837 Eh    ::
         :: add. restraining           0.000000000000 Eh    ::
         :: total charge              -0.000000000000 e     ::
         :::::::::::::::::::::::::::::::::::::::::::::::::::::

           ------------------------------------------------- 
          |                Numerical Hessian                |
           ------------------------------------------------- 
step length          :   0.00500
SCC accuracy         :   0.30000
Hessian scale factor :   1.00000
frozen atoms in %    :   0.00000    0
RMS gradient         :   0.00054
PROF gen_displdir: wall=    12.921 s, evals=18192, avg_nnb=   71.61, max_nnb=126
PROF gen_displdir: extract=     0.110 s, orth=     5.747 s, proj=     4.953 s, diag=     2.083 s, sign=     0.013 s
========================================================
PROF odlrhessian: natoms=113, ndispl=131
PROF odlrhessian: setup        =      0.011 s
PROF odlrhessian: ref_singlept =      0.552 s
PROF odlrhessian: grad_evals   =    109.627 s
PROF odlrhessian: dirgen       =     12.922 s
PROF odlrhessian: local_solve  =      1.972 s
PROF odlrhessian: neg_mode     =      5.778 s
PROF odlrhessian: TOTAL        =    130.862 s
========================================================
Error norm for predicted gradient (ODLR Hessian):   1.4489E-02

writing file <hessian>, containing the non-mass-weighted Hessian matrix in atomic units (Eₕ/Bohr²).

 projected vibrational frequencies (cm⁻¹)
eigval :       -0.00    -0.00     0.00     0.00     0.00     0.00
eigval :       -1.58    16.17    18.53    26.23    29.85    29.97
eigval :       34.81    37.95    39.56    46.23    49.06    51.31
eigval :       55.02    58.74    60.05    66.39    72.26    73.03
eigval :       75.58    81.38    85.46    88.88    89.86    97.72
eigval :      101.81   108.82   120.49   136.97   141.56   147.97
eigval :      153.03   157.80   162.72   169.38   182.34   184.64
eigval :      195.16   199.25   200.73   202.71   205.82   216.51
eigval :      221.37   228.71   236.02   247.95   251.12   256.39
eigval :      259.21   262.91   267.73   275.52   281.37   293.30
eigval :      299.85   305.81   310.83   312.33   319.03   325.54
eigval :      336.53   337.88   345.45   348.92   349.98   358.04
eigval :      363.13   368.24   370.09   373.83   374.64   381.51
eigval :      385.08   389.42   392.17   397.92   406.39   411.99
eigval :      417.66   422.70   427.07   433.97   449.15   469.87
eigval :      484.51   488.90   503.19   512.35   519.85   529.92
eigval :      541.76   547.31   550.97   557.32   568.94   580.82
eigval :      584.14   585.65   587.35   589.03   594.64   611.24
eigval :      614.23   620.75   641.05   646.65   648.76   651.98
eigval :      660.23   664.92   666.36   674.84   686.79   692.40
eigval :      693.87   697.17   729.34   741.34   755.67   766.15
eigval :      769.83   771.58   774.61   782.21   788.77   806.91
eigval :      830.84   845.40   849.03   852.95   864.65   880.31
eigval :      881.39   881.53   884.25   899.70   905.25   908.96
eigval :      915.20   917.36   928.05   934.00   934.34   934.83
eigval :      936.05   936.75   939.74   940.97   952.31   962.97
eigval :      967.04   979.09   980.28   983.18   985.43   992.39
eigval :      996.25  1006.86  1007.61  1010.24  1012.34  1013.51
eigval :     1017.66  1023.67  1026.50  1029.66  1043.04  1046.99
eigval :     1061.37  1063.11  1068.20  1071.30  1073.19  1076.03
eigval :     1080.67  1085.01  1086.11  1088.40  1093.24  1096.05
eigval :     1101.63  1105.76  1108.66  1118.44  1119.53  1122.09
eigval :     1123.26  1129.84  1132.89  1141.87  1146.66  1148.88
eigval :     1156.70  1159.98  1170.19  1172.23  1176.96  1180.01
eigval :     1180.98  1182.25  1182.66  1184.66  1186.65  1189.65
eigval :     1193.87  1194.50  1198.89  1201.59  1213.49  1220.07
eigval :     1222.98  1223.88  1228.56  1232.31  1236.56  1238.37
eigval :     1244.60  1258.84  1265.70  1271.75  1273.20  1278.82
eigval :     1279.70  1281.39  1289.24  1293.72  1304.09  1306.81
eigval :     1312.93  1313.85  1316.12  1317.62  1318.08  1322.96
eigval :     1326.38  1328.14  1328.81  1332.86  1344.52  1347.82
eigval :     1359.43  1373.73  1383.56  1396.44  1404.18  1407.24
eigval :     1419.03  1422.58  1429.60  1431.17  1432.64  1438.95
eigval :     1445.22  1450.83  1452.94  1459.03  1459.42  1464.11
eigval :     1468.01  1470.74  1472.98  1475.62  1485.92  1487.10
eigval :     1503.46  1506.89  1511.65  1521.92  1525.71  1581.37
eigval :     1583.08  1587.84  1590.99  1594.06  1601.91  1641.78
eigval :     1711.11  1711.99  1726.48  1762.83  1767.59  1777.19
eigval :     2846.67  2863.41  2897.52  2900.56  2919.27  2933.75
eigval :     2951.52  2974.66  2978.78  2986.12  3000.01  3005.30
eigval :     3006.24  3008.40  3009.99  3013.91  3019.10  3026.53
eigval :     3028.55  3031.56  3033.25  3040.57  3046.14  3048.28
eigval :     3049.24  3050.68  3055.06  3058.52  3067.76  3071.17
eigval :     3072.57  3077.81  3080.42  3082.68  3083.31  3085.36
eigval :     3087.23  3089.65  3090.72  3092.20  3093.95  3095.38
eigval :     3096.19  3105.61  3106.63  3113.85  3144.21  3379.81
eigval :     3398.00  3483.33  3497.38
           -------------------------------------------------
          |                Property Printout                |
           -------------------------------------------------

    * Orbital Energies and Occupations

         #    Occupation            Energy/Eh            Energy/eV
      -------------------------------------------------------------
         1        2.0000           -0.7802581             -21.2319
       ...           ...                  ...                  ...
       152        2.0000           -0.4324884             -11.7686
       153        2.0000           -0.4318263             -11.7506
       154        2.0000           -0.4252563             -11.5718
       155        2.0000           -0.4239658             -11.5367
       156        2.0000           -0.4221618             -11.4876
       157        2.0000           -0.4217372             -11.4761
       158        2.0000           -0.4216677             -11.4742
       159        2.0000           -0.4189486             -11.4002
       160        2.0000           -0.4160572             -11.3215
       161        2.0000           -0.4129223             -11.2362
       162        2.0000           -0.4113095             -11.1923
       163        2.0000           -0.4094402             -11.1414
       164        2.0000           -0.4032881             -10.9740 (HOMO)
       165                         -0.2909111              -7.9161 (LUMO)
       166                         -0.2873383              -7.8189
       167                         -0.2679413              -7.2911
       168                         -0.2594266              -7.0594
       169                         -0.2552982              -6.9470
       170                         -0.2509046              -6.8275
       171                         -0.2490787              -6.7778
       172                         -0.2444480              -6.6518
       173                         -0.2422316              -6.5915
       174                         -0.2398425              -6.5264
       175                         -0.2278544              -6.2002
       ...                                ...                  ...
       299                          0.6724165              18.2974
      -------------------------------------------------------------
                  HL-Gap            0.1123771 Eh            3.0579 eV
             Fermi-level           -0.3470996 Eh           -9.4451 eV

     #   Z          covCN         q      C6AA      α(0)
     1   6          2.961    -0.050    29.234     8.869
     2   6          2.964    -0.005    28.135     8.700
     3   6          3.756    -0.121    22.869     6.819
     4   1          0.924     0.080     1.976     2.199
     5   1          0.925     0.074     2.044     2.236
     6   1          0.925     0.062     2.180     2.309
     7   6          3.769     0.103    18.919     6.199
     8   6          3.812    -0.068    21.793     6.645
     9   1          0.925     0.053     2.289     2.366
    10   1          0.924     0.080     1.981     2.201
    11   6          3.779     0.133    18.447     6.119
    12   8          1.657    -0.441    21.653     6.282
    13   1          0.805     0.309     0.696     1.310
    14   6          3.901     0.000    20.521     6.439
    15   6          3.762    -0.121    22.871     6.817
    16   1          0.926     0.046     2.366     2.406
    17   1          0.925     0.061     2.188     2.313
    18   1          0.925     0.049     2.332     2.388
    19   6          3.759    -0.119    22.834     6.812
    20   1          0.925     0.068     2.108     2.270
    21   1          0.925     0.039     2.458     2.452
    22   1          0.925     0.055     2.255     2.348
    23   6          3.742     0.090    19.167     6.246
    24   1          0.924     0.061     2.188     2.313
    25   8          1.705    -0.270    18.479     5.804
    26   6          2.722     0.357    20.937     7.491
    27   8          0.856    -0.429    22.274     6.328
    28   6          2.974    -0.019    28.478     8.754
    29   6          2.924    -0.017    28.435     8.745
    30   6          2.918    -0.024    28.605     8.771
    31   6          2.920    -0.020    28.501     8.755
    32   6          2.918    -0.025    28.629     8.774
    33   6          2.921    -0.024    28.615     8.772
    34   1          0.926     0.057     2.234     2.337
    35   1          0.926     0.043     2.407     2.426
    36   1          0.926     0.046     2.375     2.410
    37   1          0.926     0.047     2.352     2.398
    38   1          0.926     0.064     2.154     2.295
    39   6          3.844    -0.050    21.429     6.585
    40   1          0.924     0.064     2.153     2.295
    41   6          3.832     0.139    18.316     6.089
    42   6          4.025     0.082    19.145     6.216
    43   1          0.925     0.051     2.309     2.376
    44   1          0.924     0.053     2.278     2.361
    45   8          1.739    -0.328    19.473     5.958
    46   6          4.075     0.110    18.706     6.143
    47   6          3.804    -0.080    22.022     6.681
    48   1          0.925     0.072     2.067     2.248
    49   1          0.924     0.094     1.840     2.121
    50   6          3.744     0.122    18.655     6.162
    51   8          1.659    -0.429    21.410     6.246
    52   1          0.805     0.309     0.694     1.308
    53   1          0.923     0.029     2.607     2.525
    54   6          3.891    -0.024    20.952     6.507
    55   6          2.832     0.218    23.412     7.929
    56   8          0.857    -0.359    20.881     6.127
    57   6          3.738     0.083    19.281     6.266
    58   1          0.923     0.095     1.834     2.118
    59   8          1.703    -0.266    18.406     5.792
    60   6          2.689     0.365    20.803     7.464
    61   8          0.857    -0.377    21.228     6.177
    62   6          3.753    -0.153    23.517     6.915
    63   1          0.925     0.073     2.051     2.239
    64   1          0.925     0.088     1.903     2.157
    65   1          0.925     0.071     2.072     2.251
    66   6          3.756    -0.114    22.740     6.799
    67   1          0.925     0.038     2.473     2.459
    68   1          0.925     0.067     2.114     2.274
    69   1          0.925     0.080     1.974     2.197
    70   1          0.924     0.042     2.424     2.435
    71   8          1.704    -0.282    18.673     5.834
    72   6          2.704     0.365    20.817     7.468
    73   8          0.856    -0.425    22.183     6.315
    74   6          3.754    -0.155    23.558     6.921
    75   1          0.925     0.114     1.665     2.018
    76   1          0.925     0.070     2.090     2.261
    77   1          0.925     0.088     1.903     2.157
    78   1          0.924     0.084     1.933     2.174
    79   8          1.703    -0.257    18.257     5.769
    80   6          2.721     0.344    21.163     7.531
    81   8          0.856    -0.407    21.820     6.263
    82   6          3.728     0.085    19.255     6.265
    83   8          1.656    -0.429    21.417     6.247
    84   1          0.804     0.322     0.658     1.274
    85   1          0.923     0.064     2.157     2.297
    86   6          3.791     0.030    20.081     6.382
    87   7          2.690    -0.191    25.153     7.449
    88   6          2.755     0.274    22.376     7.746
    89   8          0.860    -0.441    22.520     6.363
    90   6          2.975    -0.015    28.378     8.738
    91   6          2.921    -0.030    28.747     8.792
    92   6          2.919    -0.028    28.689     8.783
    93   6          2.920    -0.025    28.626     8.774
    94   6          2.919    -0.026    28.643     8.776
    95   6          2.924    -0.020    28.509     8.756
    96   1          0.926     0.051     2.310     2.377
    97   1          0.926     0.042     2.420     2.433
    98   1          0.926     0.040     2.453     2.449
    99   1          0.926     0.038     2.479     2.462
   100   1          0.926     0.034     2.534     2.490
   101   1          0.860     0.192     1.148     1.678
   102   6          2.973    -0.004    28.111     8.697
   103   6          2.923    -0.039    28.964     8.826
   104   6          2.919    -0.030    28.741     8.791
   105   6          2.920    -0.028    28.707     8.786
   106   6          2.919    -0.026    28.646     8.777
   107   6          2.924    -0.036    28.887     8.814
   108   1          0.926     0.047     2.363     2.404
   109   1          0.926     0.041     2.441     2.443
   110   1          0.926     0.037     2.488     2.466
   111   1          0.926     0.035     2.520     2.482
   112   1          0.926     0.031     2.576     2.510
   113   1          0.924     0.077     2.015     2.220

 Mol. C6AA /au·bohr⁶  :     137931.784973
 Mol. C8AA /au·bohr⁸  :    3235402.328336
 Mol. α(0) /au        :        564.993911


Wiberg/Mayer (AO) data.
largest (>0.10) Wiberg bond orders for each atom

 ---------------------------------------------------------------------------
     #   Z sym  total        # sym  WBO       # sym  WBO       # sym  WBO
 ---------------------------------------------------------------------------
     1   6      3.967 --     2      1.799    14      0.991    57      0.964
     2   6      3.981 --     1      1.799     3      1.037     7      0.997
     3   6      3.990 --     2      1.037     5      0.973     6      0.973
                             4      0.946
     4   1      0.993 --     3      0.946
     5   1      0.994 --     3      0.973
     6   1      0.996 --     3      0.973
     7   6      3.911 --     2      0.997     8      0.968    78      0.934
                            79      0.914
     8   6      3.989 --    11      0.981     9      0.970     7      0.968
                            10      0.966
     9   1      0.997 --     8      0.970
    10   1      0.993 --     8      0.966
    11   6      3.948 --    12      0.999     8      0.981    23      0.942
                            14      0.923
    12   8      1.985 --    11      0.999    13      0.874
    13   1      0.904 --    12      0.874
    14   6      3.987 --    15      1.004     1      0.991    19      0.980
                            11      0.923
    15   6      3.991 --    14      1.004    18      0.974    17      0.972
                            16      0.953
    16   1      0.998 --    15      0.953
    17   1      0.996 --    15      0.972
    18   1      0.997 --    15      0.974
    19   6      3.988 --    21      0.982    22      0.981    14      0.980
                            20      0.977
    20   1      0.995 --    19      0.977
    21   1      0.998 --    19      0.982
    22   1      0.996 --    19      0.981
    23   6      3.923 --    39      0.969    24      0.945    11      0.942
                            25      0.938
    24   1      0.996 --    23      0.945
    25   8      2.306 --    26      1.112    23      0.938    27      0.164
    26   6      3.910 --    27      1.704    25      1.112    28      1.008
    27   8      2.022 --    26      1.704    25      0.164
    28   6      3.986 --    29      1.386    33      1.382    26      1.008
                            31      0.102
    29   6      3.987 --    30      1.453    28      1.386    38      0.966
                            32      0.107
    30   6      3.991 --    29      1.453    31      1.435    37      0.970
                            33      0.108
    31   6      3.990 --    30      1.435    32      1.430    36      0.970
                            28      0.102
    32   6      3.992 --    33      1.455    31      1.430    35      0.970
                            29      0.107
    33   6      3.989 --    32      1.455    28      1.382    34      0.963
                            30      0.108
    34   1      0.997 --    33      0.963
    35   1      0.998 --    32      0.970
    36   1      0.997 --    31      0.970
    37   1      0.997 --    30      0.970
    38   1      0.996 --    29      0.966
    39   6      3.987 --    54      0.972    23      0.969    41      0.967
                            40      0.947
    40   1      0.996 --    39      0.947
    41   6      3.923 --    42      0.976    39      0.967    46      0.954
                            71      0.931
    42   6      3.950 --    45      0.977    41      0.976    44      0.968
                            43      0.968
    43   1      0.997 --    42      0.968
    44   1      0.997 --    42      0.968
    45   8      2.034 --    42      0.977    46      0.961
    46   6      3.946 --    47      0.997    70      0.963    45      0.961
                            41      0.954
    47   6      3.986 --    46      0.997    50      0.984    48      0.969
                            49      0.961
    48   1      0.994 --    47      0.969
    49   1      0.991 --    47      0.961
    50   6      3.959 --    51      1.021    47      0.984    53      0.950
                            54      0.894
    51   8      1.987 --    50      1.021    52      0.871
    52   1      0.904 --    51      0.871
    53   1      0.999 --    50      0.950
    54   6      3.982 --    66      0.999    39      0.972    55      0.962
                            50      0.894
    55   6      3.915 --    56      1.815    54      0.962    57      0.959
    56   8      2.077 --    55      1.815
    57   6      3.939 --     1      0.964    55      0.959    59      0.939
                            58      0.909
    58   1      0.991 --    57      0.909
    59   8      2.303 --    60      1.090    57      0.939    61      0.156
    60   6      3.910 --    61      1.775    59      1.090    62      0.994
    61   8      2.061 --    60      1.775    59      0.156
    62   6      3.992 --    60      0.994    63      0.982    65      0.959
                            64      0.951
    63   1      0.995 --    62      0.982
    64   1      0.992 --    62      0.951
    65   1      0.995 --    62      0.959
    66   6      3.985 --    54      0.999    69      0.976    68      0.975
                            67      0.973
    67   1      0.998 --    66      0.973
    68   1      0.995 --    66      0.975
    69   1      0.993 --    66      0.976
    70   1      0.998 --    46      0.963
    71   8      2.295 --    72      1.108    41      0.931    73      0.163
    72   6      3.906 --    73      1.737    71      1.108    74      1.000
    73   8      2.027 --    72      1.737    71      0.163
    74   6      3.982 --    72      1.000    76      0.969    75      0.957
                            77      0.946
    75   1      0.987 --    74      0.957
    76   1      0.995 --    74      0.969
    77   1      0.992 --    74      0.946
    78   1      0.992 --     7      0.934
    79   8      2.330 --    80      1.160     7      0.914    81      0.172
    80   6      3.916 --    81      1.735    79      1.160    82      0.943
    81   8      2.056 --    80      1.735    79      0.172
    82   6      3.966 --    83      1.025    85      0.943    80      0.943
                            86      0.915
    83   8      1.974 --    82      1.025    84      0.860
    84   1      0.896 --    83      0.860
    85   1      0.995 --    82      0.943
    86   6      3.969 --    87      1.001   102      0.984   113      0.946
                            82      0.915
    87   7      3.431 --    88      1.231    86      1.001   101      0.921
                            89      0.191
    88   6      3.944 --    89      1.662    87      1.231    90      0.982
    89   8      2.000 --    88      1.662    87      0.191
    90   6      3.988 --    95      1.401    91      1.395    88      0.982
                            93      0.108
    91   6      3.991 --    92      1.447    90      1.395   100      0.968
                            94      0.110
    92   6      3.992 --    91      1.447    93      1.436    99      0.970
                            95      0.110
    93   6      3.992 --    94      1.438    92      1.436    98      0.971
                            90      0.108
    94   6      3.992 --    95      1.446    93      1.438    97      0.970
                            91      0.110
    95   6      3.990 --    94      1.446    90      1.401    96      0.969
                            92      0.110
    96   1      0.997 --    95      0.969
    97   1      0.998 --    94      0.970
    98   1      0.998 --    93      0.971
    99   1      0.998 --    92      0.970
   100   1      0.999 --    91      0.968
   101   1      0.962 --    87      0.921
   102   6      3.986 --   103      1.415   107      1.408    86      0.984
                           105      0.109
   103   6      3.992 --   104      1.441   102      1.415   112      0.964
                           106      0.110
   104   6      3.992 --   105      1.441   103      1.441   111      0.966
                           107      0.112
   105   6      3.991 --   104      1.441   106      1.437   110      0.971
                           102      0.109
   106   6      3.991 --   107      1.447   105      1.437   109      0.970
                           103      0.110
   107   6      3.990 --   106      1.447   102      1.408   108      0.968
                           104      0.112
   108   1      0.998 --   107      0.968
   109   1      0.998 --   106      0.970
   110   1      0.998 --   105      0.971
   111   1      0.998 --   104      0.966
   112   1      0.999 --   103      0.964
   113   1      0.994 --    86      0.946
 ---------------------------------------------------------------------------

Topologies differ in total number of bonds
Writing topology from bond orders to xtbtopo.mol

molecular dipole:
                 x           y           z       tot (Debye)
 q only:        2.477       1.562       2.247
   full:        2.607       1.693       2.658      10.396
molecular quadrupole (traceless):
                xx          xy          yy          xz          yz          zz
 q only:       12.334       0.462      -3.770     -15.624      -7.849      -8.564
  q+dip:       10.397       2.598      -5.387     -24.634      -5.559      -5.010
   full:        7.850       1.430      -0.567     -22.692      -9.549      -7.283

           -------------------------------------------------
          |                Geometry Summary                 |
           -------------------------------------------------

      molecular mass/u    :      853.9079376
   center of mass at/Å    :       -0.0033322      -0.0373121      -0.0962966
  moments of inertia/u·Å² :        0.8863209E+04   0.1516058E+05   0.1732655E+05
rotational constants/cm⁻¹ :        0.1901978E-02   0.1111938E-02   0.9729367E-03

 * 98 selected distances

     #   Z          #   Z                                           value/Å
     1   6          2   6                                         1.3435538
     3   6          4   1                                         1.0928792
     3   6          5   1                                         1.0859590
     3   6          6   1                                         1.0867290
     7   6          8   6                                         1.5344149
     8   6          9   1                                         1.0900266
     8   6         10   1                                         1.0908727
    11   6         12   8                                         1.4090792
    12   8         13   1                                         0.9661969
    14   6         15   6                                         1.5323797
    15   6         16   1                                         1.0796303
    15   6         17   1                                         1.0834615
    15   6         18   1                                         1.0901283
    19   6         20   1                                         1.0865700
    19   6         21   1                                         1.0865493
    19   6         22   1                                         1.0871595
    23   6         24   1                                         1.0963580
    23   6         25   8                                         1.4310395
    25   8         26   6                                         1.3417935
    26   6         27   8                                         1.2095334
    28   6         29   6                                         1.3929197
    29   6         30   6                                         1.3819228
    30   6         31   6                                         1.3861842
    31   6         32   6                                         1.3865921
    28   6         33   6                                         1.3936870
    32   6         33   6                                         1.3826193
    33   6         34   1                                         1.0788248
    32   6         35   1                                         1.0799493
    31   6         36   1                                         1.0798266
    30   6         37   1                                         1.0794598
    29   6         38   1                                         1.0792099
    39   6         40   1                                         1.0907234
    41   6         42   6                                         1.5382423
    42   6         43   1                                         1.0900195
    42   6         44   1                                         1.0934837
    42   6         45   8                                         1.4212867
    41   6         46   6                                         1.5483106 (max)
    45   8         46   6                                         1.4327550
    46   6         47   6                                         1.5138698
    47   6         48   1                                         1.0890943
    47   6         49   1                                         1.0902444
    47   6         50   6                                         1.5272038
    50   6         51   8                                         1.3966725
    51   8         52   1                                         0.9661665 (min)
    50   6         53   1                                         1.1020330
    55   6         56   8                                         1.2103750
    57   6         58   1                                         1.1010254
    57   6         59   8                                         1.4266865
    59   8         60   6                                         1.3472593
    60   6         61   8                                         1.1994266
    62   6         63   1                                         1.0862284
    62   6         64   1                                         1.0877664
    62   6         65   1                                         1.0861552
    54   6         66   6                                         1.5316208
    66   6         67   1                                         1.0875576
    66   6         68   1                                         1.0836758
    66   6         69   1                                         1.0880169
    46   6         70   1                                         1.0969077
    41   6         71   8                                         1.4296409
    71   8         72   6                                         1.3449103
    72   6         73   8                                         1.2051272
    74   6         75   1                                         1.0883802
    74   6         76   1                                         1.0868018
    74   6         77   1                                         1.0893179
     7   6         78   1                                         1.0914720
     7   6         79   8                                         1.4369202
    79   8         80   6                                         1.3256887
    80   6         81   8                                         1.2055854
    82   6         83   8                                         1.3927108
    83   8         84   1                                         0.9726424
    82   6         85   1                                         1.0985736
    86   6         87   7                                         1.4379468
    87   7         88   6                                         1.3560334
    88   6         89   8                                         1.2177717
    90   6         91   6                                         1.3916887
    91   6         92   6                                         1.3832756
    92   6         93   6                                         1.3852774
    93   6         94   6                                         1.3851941
    90   6         95   6                                         1.3905102
    94   6         95   6                                         1.3828242
    95   6         96   1                                         1.0795131
    94   6         97   1                                         1.0796291
    93   6         98   1                                         1.0798190
    92   6         99   1                                         1.0799319
    91   6        100   1                                         1.0806156
    87   7        101   1                                         1.0131312
   102   6        103   6                                         1.3882566
   103   6        104   6                                         1.3842802
   104   6        105   6                                         1.3838529
   105   6        106   6                                         1.3848866
   102   6        107   6                                         1.3898300
   106   6        107   6                                         1.3832160
   107   6        108   1                                         1.0798151
   106   6        109   1                                         1.0796139
   105   6        110   1                                         1.0795170
   104   6        111   1                                         1.0801474
   103   6        112   1                                         1.0793208
    86   6        113   1                                         1.0955501

 * 6 distinct bonds (by element types)

   Z      Z             #   av. dist./Å        max./Å        min./Å
   1 H    6 C          47     1.0866924     1.1020330     1.0788248
   6 C    6 C          26     1.4241005     1.5483106     1.3435538
   1 H    7 N           1     1.0131312     1.0131312     1.0131312
   6 C    7 N           2     1.3969901     1.4379468     1.3560334
   1 H    8 O           3     0.9683353     0.9726424     0.9661665
   6 C    8 O          19     1.3360138     1.4369202     1.1994266

           -------------------------------------------------
          |               Frequency Printout                |
           -------------------------------------------------
 projected vibrational frequencies (cm⁻¹)
eigval :       -0.00    -0.00     0.00     0.00     0.00     0.00
eigval :       -1.58    16.17    18.53    26.23    29.85    29.97
eigval :       34.81    37.95    39.56    46.23    49.06    51.31
eigval :       55.02    58.74    60.05    66.39    72.26    73.03
eigval :       75.58    81.38    85.46    88.88    89.86    97.72
eigval :      101.81   108.82   120.49   136.97   141.56   147.97
eigval :      153.03   157.80   162.72   169.38   182.34   184.64
eigval :      195.16   199.25   200.73   202.71   205.82   216.51
eigval :      221.37   228.71   236.02   247.95   251.12   256.39
eigval :      259.21   262.91   267.73   275.52   281.37   293.30
eigval :      299.85   305.81   310.83   312.33   319.03   325.54
eigval :      336.53   337.88   345.45   348.92   349.98   358.04
eigval :      363.13   368.24   370.09   373.83   374.64   381.51
eigval :      385.08   389.42   392.17   397.92   406.39   411.99
eigval :      417.66   422.70   427.07   433.97   449.15   469.87
eigval :      484.51   488.90   503.19   512.35   519.85   529.92
eigval :      541.76   547.31   550.97   557.32   568.94   580.82
eigval :      584.14   585.65   587.35   589.03   594.64   611.24
eigval :      614.23   620.75   641.05   646.65   648.76   651.98
eigval :      660.23   664.92   666.36   674.84   686.79   692.40
eigval :      693.87   697.17   729.34   741.34   755.67   766.15
eigval :      769.83   771.58   774.61   782.21   788.77   806.91
eigval :      830.84   845.40   849.03   852.95   864.65   880.31
eigval :      881.39   881.53   884.25   899.70   905.25   908.96
eigval :      915.20   917.36   928.05   934.00   934.34   934.83
eigval :      936.05   936.75   939.74   940.97   952.31   962.97
eigval :      967.04   979.09   980.28   983.18   985.43   992.39
eigval :      996.25  1006.86  1007.61  1010.24  1012.34  1013.51
eigval :     1017.66  1023.67  1026.50  1029.66  1043.04  1046.99
eigval :     1061.37  1063.11  1068.20  1071.30  1073.19  1076.03
eigval :     1080.67  1085.01  1086.11  1088.40  1093.24  1096.05
eigval :     1101.63  1105.76  1108.66  1118.44  1119.53  1122.09
eigval :     1123.26  1129.84  1132.89  1141.87  1146.66  1148.88
eigval :     1156.70  1159.98  1170.19  1172.23  1176.96  1180.01
eigval :     1180.98  1182.25  1182.66  1184.66  1186.65  1189.65
eigval :     1193.87  1194.50  1198.89  1201.59  1213.49  1220.07
eigval :     1222.98  1223.88  1228.56  1232.31  1236.56  1238.37
eigval :     1244.60  1258.84  1265.70  1271.75  1273.20  1278.82
eigval :     1279.70  1281.39  1289.24  1293.72  1304.09  1306.81
eigval :     1312.93  1313.85  1316.12  1317.62  1318.08  1322.96
eigval :     1326.38  1328.14  1328.81  1332.86  1344.52  1347.82
eigval :     1359.43  1373.73  1383.56  1396.44  1404.18  1407.24
eigval :     1419.03  1422.58  1429.60  1431.17  1432.64  1438.95
eigval :     1445.22  1450.83  1452.94  1459.03  1459.42  1464.11
eigval :     1468.01  1470.74  1472.98  1475.62  1485.92  1487.10
eigval :     1503.46  1506.89  1511.65  1521.92  1525.71  1581.37
eigval :     1583.08  1587.84  1590.99  1594.06  1601.91  1641.78
eigval :     1711.11  1711.99  1726.48  1762.83  1767.59  1777.19
eigval :     2846.67  2863.41  2897.52  2900.56  2919.27  2933.75
eigval :     2951.52  2974.66  2978.78  2986.12  3000.01  3005.30
eigval :     3006.24  3008.40  3009.99  3013.91  3019.10  3026.53
eigval :     3028.55  3031.56  3033.25  3040.57  3046.14  3048.28
eigval :     3049.24  3050.68  3055.06  3058.52  3067.76  3071.17
eigval :     3072.57  3077.81  3080.42  3082.68  3083.31  3085.36
eigval :     3087.23  3089.65  3090.72  3092.20  3093.95  3095.38
eigval :     3096.19  3105.61  3106.63  3113.85  3144.21  3379.81
eigval :     3398.00  3483.33  3497.38
 reduced masses (amu)
    1:      7.21    2:      7.09    3:      7.42    4:      7.34    5:      7.09    6:      7.18
    7:      6.12    8:      5.92    9:      5.74   10:      5.38   11:      5.88   12:      6.31
   13:      5.34   14:      5.39   15:      6.44   16:      5.64   17:      3.86   18:      5.17
   19:      4.65   20:      4.33   21:      5.26   22:      5.84   23:      6.01   24:      4.32
   25:      4.65   26:      6.62   27:      4.33   28:      3.89   29:      6.57   30:      4.57
   31:      5.28   32:      6.91   33:      4.88   34:      4.25   35:      4.17   36:      4.84
   37:      4.69   38:      4.96   39:      5.06   40:      3.18   41:      3.44   42:      3.34
   43:      3.48   44:      1.69   45:      3.58   46:      3.86   47:      1.87   48:      1.60
   49:      4.00   50:      1.89   51:      1.72   52:      1.52   53:      2.74   54:      2.42
   55:      2.42   56:      4.28   57:      3.10   58:      2.31   59:      5.52   60:      3.36
   61:      3.35   62:      3.32   63:      1.82   64:      2.45   65:      7.16   66:      4.88
   67:      3.94   68:      4.58   69:      2.00   70:      2.61   71:      3.73   72:      3.66
   73:      3.54   74:      3.01   75:      2.51   76:      2.88   77:      2.46   78:      3.11
   79:      2.33   80:      4.44   81:      4.49   82:      3.60   83:      3.94   84:      3.78
   85:      5.58   86:      4.08   87:      4.21   88:      4.67   89:      3.85   90:      3.86
   91:      4.14   92:      3.36   93:      3.88   94:      4.55   95:      4.89   96:      4.44
   97:      5.83   98:      4.51   99:      2.92  100:      4.61  101:      3.47  102:      4.39
  103:      3.45  104:      6.10  105:      6.55  106:      6.45  107:      5.76  108:      3.77
  109:      4.53  110:      3.02  111:      5.14  112:      3.36  113:      3.72  114:      4.38
  115:      4.89  116:      4.68  117:      4.61  118:      2.25  119:      3.68  120:      2.66
  121:      2.60  122:      4.38  123:      4.34  124:      2.72  125:      2.81  126:      3.26
  127:      3.97  128:      3.19  129:      1.77  130:      1.89  131:      4.49  132:      3.89
  133:      3.93  134:      3.50  135:      6.31  136:      3.91  137:      2.91  138:      1.24
  139:      1.45  140:      1.25  141:      1.95  142:      3.11  143:      1.34  144:      1.29
  145:      3.10  146:      1.28  147:      2.39  148:      1.31  149:      1.33  150:      1.26
  151:      1.32  152:      1.96  153:      1.36  154:      1.34  155:      2.73  156:      2.29
  157:      3.67  158:      2.29  159:      4.59  160:      5.39  161:      4.81  162:      1.84
  163:      2.28  164:      1.71  165:      1.75  166:      1.70  167:      2.57  168:      1.75
  169:      1.62  170:      2.85  171:      2.51  172:      2.91  173:      2.42  174:      2.84
  175:      3.04  176:      3.97  177:      3.77  178:      2.66  179:      3.85  180:      2.00
  181:      2.09  182:      2.36  183:      2.34  184:      2.85  185:      3.86  186:      2.80
  187:      3.51  188:      2.92  189:      2.53  190:      2.21  191:      1.42  192:      2.01
  193:      3.06  194:      3.14  195:      1.96  196:      1.29  197:      1.21  198:      1.95
  199:      1.95  200:      2.62  201:      2.68  202:      1.86  203:      1.52  204:      1.80
  205:      1.35  206:      1.05  207:      1.31  208:      1.67  209:      2.19  210:      1.66
  211:      1.30  212:      2.58  213:      1.34  214:      2.74  215:      1.56  216:      1.84
  217:      2.62  218:      1.48  219:      1.48  220:      1.81  221:      3.05  222:      1.34
  223:      1.56  224:      1.63  225:      1.53  226:      1.61  227:      1.42  228:      1.28
  229:      1.63  230:      1.45  231:      2.41  232:      1.44  233:      1.29  234:      1.30
  235:      2.25  236:      1.58  237:      1.28  238:      4.63  239:      1.57  240:      1.50
  241:      8.10  242:      1.44  243:      3.62  244:      1.39  245:      1.43  246:      1.40
  247:      1.26  248:      1.25  249:      1.19  250:      2.84  251:      1.24  252:      1.21
  253:      1.20  254:      1.17  255:      2.92  256:      1.22  257:      2.21  258:      2.78
  259:      1.06  260:      1.08  261:      1.06  262:      1.38  263:      1.84  264:      1.07
  265:      2.89  266:      1.10  267:      1.26  268:      2.15  269:      1.07  270:      1.06
  271:      1.06  272:      1.06  273:      1.06  274:      1.06  275:      1.06  276:      7.93
  277:      8.18  278:      8.03  279:      8.12  280:      7.82  281:      7.86  282:      9.66
  283:     11.53  284:     11.20  285:     12.91  286:     12.31  287:     12.15  288:     12.36
  289:      1.07  290:      1.07  291:      1.07  292:      1.07  293:      1.07  294:      1.07
  295:      1.09  296:      1.07  297:      1.07  298:      1.06  299:      1.10  300:      1.09
  301:      1.08  302:      1.07  303:      1.05  304:      1.05  305:      1.09  306:      1.08
  307:      1.04  308:      1.07  309:      1.08  310:      1.07  311:      1.09  312:      1.07
  313:      1.07  314:      1.06  315:      1.07  316:      1.07  317:      1.08  318:      1.08
  319:      1.08  320:      1.08  321:      1.08  322:      1.08  323:      1.08  324:      1.08
  325:      1.08  326:      1.07  327:      1.07  328:      1.08  329:      1.09  330:      1.09
  331:      1.09  332:      1.09  333:      1.08  334:      1.09  335:      1.07  336:      1.07
  337:      1.07  338:      1.06  339:      1.06
           -------------------------------------------------
          |             Thermodynamic Functions             |
           -------------------------------------------------

Molecule has no symmetry elements
It seems to be the C1 point group
c1  symmetry found (for desy threshold:  0.10E+00) used in thermo
 inverting freq            1   1.5806389243153236     

          ...................................................
          :                      SETUP                      :
          :.................................................:
          :  # frequencies                         333      :
          :  # imaginary freq.                       0      :
          :  linear?                             false      :
          :  only rotor calc.                    false      :
          :  symmetry                               c1      :
          :  rotational number                       1      :
          :  scaling factor                  1.0000000      :
          :  rotor cutoff                   50.0000000 cm⁻¹ :
          :  imag. cutoff                  -20.0000000 cm⁻¹ :
          :.................................................:

    mode    ω/cm⁻¹     T·S(HO)/kcal·mol⁻¹    T·S(FR)/kcal·mol⁻¹   T·S(vib)
   ------------------------------------------------------------------------
       1      1.58    -3.48142 (  0.00%)    -2.07960 (100.00%)    -2.07960
       2     16.17    -2.10374 (  1.08%)    -1.39089 ( 98.92%)    -1.39861
       3     18.53    -2.02310 (  1.85%)    -1.35055 ( 98.15%)    -1.36301
       4     26.23    -1.81742 (  7.04%)    -1.24762 ( 92.96%)    -1.28775
       5     29.85    -1.74100 ( 11.27%)    -1.20935 ( 88.73%)    -1.26927
       6     29.97    -1.73860 ( 11.43%)    -1.20815 ( 88.57%)    -1.26880
       7     34.81    -1.65019 ( 19.02%)    -1.16385 ( 80.98%)    -1.25633
       8     37.95    -1.59915 ( 24.91%)    -1.13827 ( 75.09%)    -1.25306
       9     39.56    -1.57459 ( 28.15%)    -1.12595 ( 71.85%)    -1.25223
      10     46.23    -1.48250 ( 42.23%)    -1.07975 ( 57.77%)    -1.24983
      11     49.06    -1.44747 ( 48.11%)    -1.06215 ( 51.89%)    -1.24752
      12     51.31    -1.42110 ( 52.58%)    -1.04890 ( 47.42%)    -1.24459
      13     55.02    -1.37988 ( 59.46%)    -1.02818 ( 40.54%)    -1.23730
      14     58.74    -1.34140 ( 65.57%)    -1.00882 ( 34.43%)    -1.22691
      15     60.05    -1.32837 ( 67.55%)    -1.00226 ( 32.45%)    -1.22253
      16     66.39    -1.26941 ( 75.66%)    -0.97255 ( 24.34%)    -1.19715
      17     72.26    -1.21971 ( 81.35%)    -0.94747 ( 18.65%)    -1.16893
      18     73.03    -1.21348 ( 81.98%)    -0.94432 ( 18.02%)    -1.16499
      19     75.58    -1.19336 ( 83.92%)    -0.93416 ( 16.08%)    -1.15169
      20     81.38    -1.15005 ( 87.53%)    -0.91224 ( 12.47%)    -1.12039
      21     85.46    -1.12144 ( 89.51%)    -0.89774 ( 10.49%)    -1.09798
      22     88.88    -1.09853 ( 90.90%)    -0.88612 (  9.10%)    -1.07920
      23     89.86    -1.09218 ( 91.25%)    -0.88289 (  8.75%)    -1.07387
      24     97.72    -1.04331 ( 93.59%)    -0.85804 (  6.41%)    -1.03142
      25    101.81    -1.01946 ( 94.50%)    -0.84588 (  5.50%)    -1.00992
      26    108.82    -0.98088 ( 95.73%)    -0.82617 (  4.27%)    -0.97428
      27    120.49    -0.92204 ( 97.12%)    -0.79599 (  2.88%)    -0.91841
      28    136.97    -0.84846 ( 98.26%)    -0.75801 (  1.74%)    -0.84688
      29    141.56    -0.82964 ( 98.47%)    -0.74824 (  1.53%)    -0.82839
      30    147.97    -0.80446 ( 98.71%)    -0.73513 (  1.29%)    -0.80357
      31    153.03    -0.78541 ( 98.87%)    -0.72518 (  1.13%)    -0.78473
      32    157.80    -0.76803 ( 99.00%)    -0.71608 (  1.00%)    -0.76751
      33    162.72    -0.75073 ( 99.12%)    -0.70699 (  0.88%)    -0.75035
      34    169.38    -0.72818 ( 99.25%)    -0.69509 (  0.75%)    -0.72793
      35    182.34    -0.68704 ( 99.44%)    -0.67326 (  0.56%)    -0.68696
      36    184.64    -0.68006 ( 99.47%)    -0.66954 (  0.53%)    -0.68000
      37    195.16    -0.64944 ( 99.57%)    -0.65312 (  0.43%)    -0.64945
      38    199.25    -0.63803 ( 99.61%)    -0.64698 (  0.39%)    -0.63807
      39    200.73    -0.63398 ( 99.62%)    -0.64479 (  0.38%)    -0.63402
      40    202.71    -0.62862 ( 99.63%)    -0.64189 (  0.37%)    -0.62867
      41    205.82    -0.62028 ( 99.65%)    -0.63737 (  0.35%)    -0.62034
      42    216.51    -0.59275 ( 99.72%)    -0.62237 (  0.28%)    -0.59283
      43    221.37    -0.58075 ( 99.74%)    -0.61579 (  0.26%)    -0.58084
      44    228.71    -0.56322 ( 99.77%)    -0.60613 (  0.23%)    -0.56332
      45    236.02    -0.54642 ( 99.80%)    -0.59682 (  0.20%)    -0.54653
      46    247.95    -0.52030 ( 99.83%)    -0.58220 (  0.17%)    -0.52040
      47    251.12    -0.51362 ( 99.84%)    -0.57844 (  0.16%)    -0.51372
      48    256.39    -0.50274 ( 99.86%)    -0.57228 (  0.14%)    -0.50284
      49    259.21    -0.49704 ( 99.86%)    -0.56905 (  0.14%)    -0.49714
      50    262.91    -0.48967 ( 99.87%)    -0.56485 (  0.13%)    -0.48977
      51    267.73    -0.48027 ( 99.88%)    -0.55947 (  0.12%)    -0.48037
      52    275.52    -0.46552 ( 99.89%)    -0.55098 (  0.11%)    -0.46561
      53    281.37    -0.45477 ( 99.90%)    -0.54474 (  0.10%)    -0.45486
      54    293.30    -0.43375 ( 99.92%)    -0.53244 (  0.08%)    -0.43384
      55    299.85    -0.42270 ( 99.92%)    -0.52590 (  0.08%)    -0.42278
   ------------------------------------------------------------------------

   temp. (K)  partition function   enthalpy   heat capacity  entropy
                                   cal/mol     cal/K/mol   cal/K/mol   J/K/mol
 298.15  VIB  0.863E+28            35422.553    213.187    224.464
         ROT  0.117E+09              888.727      2.981     39.891
         INT  0.101E+37            36311.280    216.168    264.355
         TR   0.763E+27             1481.212      4.968     46.111
         TOT                       37792.4928   221.1359   310.4656  1298.9880

       T/K    H(0)-H(T)+PV         H(T)/Eh          T*S/Eh         G(T)/Eh
   ------------------------------------------------------------------------
    298.15    0.602262E-01    0.952512E+00    0.147512E+00    0.804999E+00
   ------------------------------------------------------------------------

         :::::::::::::::::::::::::::::::::::::::::::::::::::::
         ::                  THERMODYNAMIC                  ::
         :::::::::::::::::::::::::::::::::::::::::::::::::::::
         :: total free energy        -185.732986681015 Eh   ::
         ::.................................................::
         :: total energy             -186.537986112578 Eh   ::
         :: zero point energy           0.892285482879 Eh   ::
         :: G(RRHO) w/o ZPVE           -0.087286051316 Eh   ::
         :: G(RRHO) contrib.            0.804999431563 Eh   ::
         :::::::::::::::::::::::::::::::::::::::::::::::::::::

optimized geometry written to: xtbopt.xyz


           -------------------------------------------------
          | TOTAL ENERGY             -186.537986112578 Eh   |
          | TOTAL ENTHALPY           -185.585474458839 Eh   |
          | TOTAL FREE ENERGY        -185.732986681015 Eh   |
          | GRADIENT NORM               0.000544305050 Eh/α |
          | HOMO-LUMO GAP               3.057935527697 eV   |
           -------------------------------------------------

------------------------------------------------------------------------
 * finished run on 2026/06/25 at 16:31:59.286     
------------------------------------------------------------------------
 total:
 * wall-time:     0 d,  0 h,  2 min, 53.304 sec
 *  cpu-time:     0 d,  0 h,  2 min, 52.656 sec
 * ratio c/w:     0.996 speedup
 SCF:
 * wall-time:     0 d,  0 h,  0 min,  1.354 sec
 *  cpu-time:     0 d,  0 h,  0 min,  1.349 sec
 * ratio c/w:     0.996 speedup
 ANC optimizer:
 * wall-time:     0 d,  0 h,  0 min, 40.334 sec
 *  cpu-time:     0 d,  0 h,  0 min, 40.186 sec
 * ratio c/w:     0.996 speedup
 analytical hessian:
 * wall-time:     0 d,  0 h,  2 min, 11.534 sec
 *  cpu-time:     0 d,  0 h,  2 min, 11.039 sec
 * ratio c/w:     0.996 speedup

normal termination of xtb
Note: The following floating-point exceptions are signalling: IEEE_INVALID_FLAG IEEE_DIVIDE_BY_ZERO IEEE_UNDERFLOW_FLAG IEEE_DENORMAL
