24
 xtb: 6.7.1 (41d4ee3)
C           -3.26776264551268       -1.05897916388587        0.00998893610552
N           -2.27602842314784       -0.01828607121910        0.00261873812216
C           -0.91367733993898       -0.20347429826456        0.00731561399606
C           -0.36986302457758        1.07431263713931        0.00445701257291
N           -1.34778437799322        2.00662526205180       -0.00421909973872
C           -2.46768395194347        1.31337665653791       -0.00495588236195
H           -3.44241625741690        1.76112580600960       -0.01167570870576
N            0.97269170390667        1.28312242454762       -0.00571182256131
C            1.82804025220293        0.20189893424297       -0.00455291203054
O            3.03203901704296        0.33856078015627       -0.01312770518907
N            1.25193192075928       -1.06289695523874       -0.00821503621349
C           -0.10650434776812       -1.38477827339671        0.00334956132622
O           -0.49987728512146       -2.53749746949067        0.00746777509092
C            2.20124100003165       -2.16400969479415       -0.01563562165189
H            1.63170478563485       -3.08981246644260        0.01529095028815
H            2.81757358684399       -2.11729683474264       -0.90496930328747
H            2.85127139513185       -2.09324401316763        0.86454446174027
C            1.50589023351247        2.62810694031779        0.01970843923337
H            0.76534811507778        3.29685989270011       -0.41701217728366
H            1.74634652465665        2.93073090042504        1.04565316168700
H            2.44449339161964        2.62874935715020       -0.57708464048403
H           -2.75167624896928       -2.01974026938757       -0.01722188281029
H           -3.91289967580349       -0.97368091678145       -0.87081702897615
H           -3.88012068036211       -0.99822656707245        0.90500256564308
