      -----------------------------------------------------------      
     |                   =====================                   |     
     |                           x T B                           |     
     |                   =====================                   |     
     |                         S. Grimme                         |     
     |          Mulliken Center for Theoretical Chemistry        |     
     |                    University of Bonn                     |     
      -----------------------------------------------------------      

   * xtb version 6.7.1 (b9eb0ff) compiled by 'polt@simurgh' on 2026-06-26

   xtb is free software: you can redistribute it and/or modify it under
   the terms of the GNU Lesser General Public License as published by
   the Free Software Foundation, either version 3 of the License, or
   (at your option) any later version.
   
   xtb is distributed in the hope that it will be useful,
   but WITHOUT ANY WARRANTY; without even the implied warranty of
   MERCHANTABILITY or FITNESS FOR A PARTICULAR PURPOSE.  See the
   GNU Lesser General Public License for more details.
   
   Cite this work as:
   * C. Bannwarth, E. Caldeweyher, S. Ehlert, A. Hansen, P. Pracht,
     J. Seibert, S. Spicher, S. Grimme, WIREs Comput. Mol. Sci., 2020, 11,
     e01493. DOI: 10.1002/wcms.1493
   
   for GFN2-xTB:
   * C. Bannwarth, S. Ehlert and S. Grimme., J. Chem. Theory Comput., 2019,
     15, 1652-1671. DOI: 10.1021/acs.jctc.8b01176
   for GFN1-xTB:
   * S. Grimme, C. Bannwarth, P. Shushkov, J. Chem. Theory Comput., 2017,
     13, 1989-2009. DOI: 10.1021/acs.jctc.7b00118
   for GFN0-xTB:
   * P. Pracht, E. Caldeweyher, S. Ehlert, S. Grimme, ChemRxiv, 2019, preprint.
     DOI: 10.26434/chemrxiv.8326202.v1
   for GFN-FF:
   * S. Spicher and S. Grimme, Angew. Chem. Int. Ed., 2020, 59, 15665-15673.
     DOI: 10.1002/anie.202004239
   
   for ALPB and GBSA implicit solvation:
   * S. Ehlert, M. Stahn, S. Spicher, S. Grimme, J. Chem. Theory Comput.,
     2021, 17, 4250-4261. DOI: 10.1021/acs.jctc.1c00471
   
   for ddCOSMO and CPCM-X implicit solvation:
   * M. Stahn, S. Ehlert, S. Grimme, J. Phys. Chem. A,
     2023, XX, XXXX-XXXX. DOI: 10.1021/acs.jpca.3c04382
   
   for DFT-D4:
   * E. Caldeweyher, C. Bannwarth and S. Grimme, J. Chem. Phys., 2017,
     147, 034112. DOI: 10.1063/1.4993215
   * E. Caldeweyher, S. Ehlert, A. Hansen, H. Neugebauer, S. Spicher,
     C. Bannwarth and S. Grimme, J. Chem. Phys., 2019, 150, 154122.
     DOI: 10.1063/1.5090222
   * E. Caldeweyher, J.-M. Mewes, S. Ehlert and S. Grimme, Phys. Chem. Chem. Phys.
     2020, 22, 8499-8512. DOI: 10.1039/D0CP00502A
   
   for sTDA-xTB:
   * S. Grimme and C. Bannwarth, J. Chem. Phys., 2016, 145, 054103.
     DOI: 10.1063/1.4959605
   
   in the mass-spec context:
   * V. Asgeirsson, C. Bauer and S. Grimme, Chem. Sci., 2017, 8, 4879.
     DOI: 10.1039/c7sc00601b
   * J. Koopman and S. Grimme, ACS Omega 2019, 4, 12, 15120-15133.
     DOI: 10.1021/acsomega.9b02011
   
   for metadynamics refer to:
   * S. Grimme, J. Chem. Theory Comput., 2019, 155, 2847-2862
     DOI: 10.1021/acs.jctc.9b00143
   
   for SPH calculations refer to:
   * S. Spicher and S. Grimme, J. Chem. Theory Comput., 2021, 17, 1701-1714
     DOI: 10.1021/acs.jctc.0c01306
   
   for ONIOM refer to:
   * C. Plett, A. Katbashev, S. Ehlert, S. Grimme, M. Bursch,
     Phys. Chem. Chem. Phys., 2023, 25, 17860-17868. DOI: 10.1039/D3CP02178E
   
   for DIPRO refer to:
   * J. Kohn, N. Gildemeister, S. Grimme, D. Fazzi, A. Hansen,
     J. Chem. Phys. 159, 144106 (2023). DOI: 10.1063/5.0167484
   
   for PTB refer to:
   * S. Grimme, M. Mueller, A. Hansen, J. Chem. Phys., 2023, 158, 124111.
     DOI: 10.1063/5.0137838
   
   for O1NumHess refer to:
   * B. Wang, S. Luo, Z. Wang, W. Liu,
     J. Chem. Theory Comput. 21, 10893-10909.
     DOI: 10.1021/acs.jctc.5c01354
   
   with help from (in alphabetical order)
   P. Atkinson, C. Bannwarth, F. Bohle, G. Brandenburg, E. Caldeweyher
   M. Checinski, S. Dohm, S. Ehlert, S. Ehrlich, I. Gerasimov, C. Hölzer
   A. Katbashev, J. Kohn, J. Koopman, C. Lavigne, S. Lehtola, F. März, M. Müller,
   F. Musil, H. Neugebauer, J. Pisarek, C. Plett, P. Pracht, F. Pultar,
   J. Seibert, L. M. Seidler, P. Shushkov, S. Spicher, M. Stahn, M. Steiner, T. Strunk,
   J. Stückrath, T. Rose, and J. Unsleber
   
 * started run on 2026/06/29 at 12:14:13.732     
   ID    Z sym.   atoms
    1    6 C      1-3, 7, 8, 11, 14, 15, 19, 23, 26, 28-33, 39, 41, 42, 46,
                  47, 50, 54, 55, 57, 60, 62, 66, 72, 74, 80, 82, 86, 88,
                  90-95, 102-107
    2    1 H      4-6, 9, 10, 13, 16-18, 20-22, 24, 34-38, 40, 43, 44, 48,
                  49, 52, 53, 58, 63-65, 67-70, 75-78, 84, 85, 96-101, 108-113
    3    8 O      12, 25, 27, 45, 51, 56, 59, 61, 71, 73, 79, 81, 83, 89
    4    7 N      87

           -------------------------------------------------
          |                Calculation Setup                |
           -------------------------------------------------

          program call               : /home/polt/xtb/build/xtb xtbopt.xyz --hess --o1nh
          coordinate file            : xtbopt.xyz
          omp threads                :                     1


           -------------------------------------------------
          |                 G F N 2 - x T B                 |
           -------------------------------------------------

        Reference                      10.1021/acs.jctc.8b01176
      * Hamiltonian:
        H0-scaling (s, p, d)           1.850000    2.230000    2.230000
        zeta-weighting                 0.500000
      * Dispersion:
        s8                             2.700000
        a1                             0.520000
        a2                             5.000000
        s9                             5.000000
      * Repulsion:
        kExp                           1.500000    1.000000
        rExp                           1.000000
      * Coulomb:
        alpha                          2.000000
        third order                    shell-resolved
        anisotropic                    true
        a3                             3.000000
        a5                             4.000000
        cn-shift                       1.200000
        cn-exp                         4.000000
        max-rad                        5.000000


          ...................................................
          :                      SETUP                      :
          :.................................................:
          :  # basis functions                 299          :
          :  # atomic orbitals                 299          :
          :  # shells                          175          :
          :  # electrons                       328          :
          :  max. iterations                   250          :
          :  Hamiltonian                  GFN2-xTB          :
          :  restarted?                      false          :
          :  GBSA solvation                  false          :
          :  PC potential                    false          :
          :  electronic temp.          300.0000000     K    :
          :  accuracy                    1.0000000          :
          :  -> integral cutoff          0.2500000E+02      :
          :  -> integral neglect         0.1000000E-07      :
          :  -> SCF convergence          0.1000000E-05 Eh   :
          :  -> wf. convergence          0.1000000E-03 e    :
          :  Broyden damping             0.4000000          :
          :  net charge                          0          :
          :  unpaired electrons                  0          :
          ...................................................

 iter      E             dE          RMSdq      gap      omega  full diag
   1   -188.5133531 -0.188513E+03  0.435E+00    3.11       0.0  T
   2   -188.7992129 -0.285860E+00  0.237E+00    2.84       1.0  T
   3   -188.8038492 -0.463635E-02  0.123E+00    3.21       1.0  T
   4   -188.8333874 -0.295381E-01  0.204E-01    3.05       1.0  T
   5   -188.8360990 -0.271166E-02  0.917E-02    3.08       1.0  T
   6   -188.8365856 -0.486605E-03  0.428E-02    3.08       1.0  T
   7   -188.8366448 -0.592061E-04  0.186E-02    3.08       1.0  T
   8   -188.8366529 -0.804071E-05  0.671E-03    3.08       1.4  T
   9   -188.8366553 -0.240711E-05  0.287E-03    3.08       3.3  T
  10   -188.8366554 -0.106982E-06  0.153E-03    3.08       6.1  T
  11   -188.8366555 -0.133652E-06  0.699E-04    3.08      13.5  T
  12   -188.8366555 -0.174606E-07  0.296E-04    3.08      31.8  T

   *** convergence criteria satisfied after 12 iterations ***

         #    Occupation            Energy/Eh            Energy/eV
      -------------------------------------------------------------
         1        2.0000           -0.7804509             -21.2372
       ...           ...                  ...                  ...
       158        2.0000           -0.4215654             -11.4714
       159        2.0000           -0.4189607             -11.4005
       160        2.0000           -0.4162723             -11.3273
       161        2.0000           -0.4127668             -11.2320
       162        2.0000           -0.4113751             -11.1941
       163        2.0000           -0.4094806             -11.1425
       164        2.0000           -0.4032784             -10.9738 (HOMO)
       165                         -0.2902094              -7.8970 (LUMO)
       166                         -0.2872690              -7.8170
       167                         -0.2681091              -7.2956
       168                         -0.2598643              -7.0713
       169                         -0.2556589              -6.9568
       ...                                ...                  ...
       299                          0.6734668              18.3260
      -------------------------------------------------------------
                  HL-Gap            0.1130690 Eh            3.0768 eV
             Fermi-level           -0.3467439 Eh           -9.4354 eV

 SCC (total)                   0 d,  0 h,  0 min,  1.355 sec
 SCC setup                      ...        0 min,  0.002 sec (  0.115%)
 Dispersion                     ...        0 min,  0.004 sec (  0.269%)
 classical contributions        ...        0 min,  0.001 sec (  0.045%)
 integral evaluation            ...        0 min,  0.050 sec (  3.688%)
 iterations                     ...        0 min,  1.092 sec ( 80.570%)
 molecular gradient             ...        0 min,  0.190 sec ( 13.999%)
 printout                       ...        0 min,  0.018 sec (  1.313%)

         :::::::::::::::::::::::::::::::::::::::::::::::::::::
         ::                     SUMMARY                     ::
         :::::::::::::::::::::::::::::::::::::::::::::::::::::
         :: total energy            -186.537840934528 Eh    ::
         :: gradient norm              0.002486486251 Eh/a0 ::
         :: HOMO-LUMO gap              3.076764448451 eV    ::
         ::.................................................::
         :: SCC energy              -188.826503426621 Eh    ::
         :: -> isotropic ES            0.330665387258 Eh    ::
         :: -> anisotropic ES         -0.001352821180 Eh    ::
         :: -> anisotropic XC          0.038454209184 Eh    ::
         :: -> dispersion             -0.163763591073 Eh    ::
         :: repulsion energy           2.288662492094 Eh    ::
         :: add. restraining           0.000000000000 Eh    ::
         :: total charge              -0.000000000000 e     ::
         :::::::::::::::::::::::::::::::::::::::::::::::::::::

           ------------------------------------------------- 
          |                Numerical Hessian                |
           ------------------------------------------------- 
step length          :   0.00500
SCC accuracy         :   0.30000
Hessian scale factor :   1.00000
frozen atoms in %    :   0.00000    0
RMS gradient         :   0.00249 !! INCOMPLETELY OPTIMIZED GEOMETRY !!
PROF gen_displdir: wall=     6.939 s, evals=15348, avg_nnb=   61.37, max_nnb=108
PROF gen_displdir: extract=     0.079 s, orth=     2.963 s, proj=     2.652 s, diag=     1.218 s, sign=     0.006 s
PROF neg_mode: round=1, nimg=5, nadd=5, min_freq=-79.3 cm-1
PROF neg_mode: round=2, nimg=1, nadd=1, min_freq=-8.6 cm-1
PROF neg_mode: stop=converged, total_repair=6, doublesided=T
========================================================
PROF odlrhessian: natoms=113, ndispl=114
PROF odlrhessian: setup        =      0.011 s
PROF odlrhessian: ref_singlept =      0.558 s
PROF odlrhessian: grad_evals   =     90.403 s
PROF odlrhessian: dirgen       =      6.939 s
PROF odlrhessian: local_solve  =      2.087 s
PROF odlrhessian: neg_mode     =     13.969 s
PROF odlrhessian: TOTAL        =    113.967 s
========================================================
Error norm for predicted gradient (ODLR Hessian):   4.0568E-03

writing file <hessian>, containing the non-mass-weighted Hessian matrix in atomic units (Eₕ/Bohr²).

 projected vibrational frequencies (cm⁻¹)
eigval :       -0.00    -0.00    -0.00     0.00     0.00     0.00
eigval :        0.87    14.68    18.65    22.86    27.47    29.31
eigval :       33.73    35.61    41.50    43.42    50.77    55.70
eigval :       56.87    62.21    64.44    65.72    71.48    77.73
eigval :       78.50    83.38    85.24    88.07    94.51   107.68
eigval :      109.25   109.54   125.48   140.24   142.50   149.08
eigval :      151.44   157.68   165.56   171.01   183.10   187.13
eigval :      189.09   195.38   199.84   202.81   210.37   213.25
eigval :      221.48   226.22   241.98   243.38   251.41   256.68
eigval :      258.50   263.17   266.01   275.76   280.91   291.95
eigval :      299.33   303.54   311.80   314.35   321.04   328.62
eigval :      334.84   338.01   347.51   349.70   355.28   358.10
eigval :      365.94   373.41   374.13   380.52   381.31   381.97
eigval :      385.49   386.54   392.43   397.31   405.93   412.17
eigval :      416.53   424.31   428.56   434.13   448.81   469.80
eigval :      484.75   490.30   502.62   512.08   519.85   529.06
eigval :      541.40   545.24   549.88   555.61   569.07   579.84
eigval :      583.60   585.20   588.56   589.98   595.08   611.23
eigval :      615.28   620.09   641.34   646.30   648.14   651.54
eigval :      661.39   664.93   666.31   676.38   686.34   693.38
eigval :      695.52   696.60   728.40   742.99   756.16   765.68
eigval :      771.15   772.20   775.31   781.88   789.63   804.47
eigval :      829.63   843.55   848.09   853.62   864.24   877.70
eigval :      878.14   878.63   884.15   898.81   903.74   910.03
eigval :      914.13   915.34   927.35   930.03   934.84   935.22
eigval :      936.77   942.70   944.34   948.86   951.45   962.87
eigval :      967.17   979.58   979.91   983.79   984.91   993.67
eigval :      996.22  1005.29  1006.04  1007.02  1011.11  1012.67
eigval :     1016.34  1021.72  1026.09  1028.30  1043.05  1047.45
eigval :     1060.33  1061.63  1066.47  1070.81  1071.79  1075.48
eigval :     1077.86  1084.39  1085.00  1087.68  1092.67  1096.73
eigval :     1101.80  1106.10  1109.31  1117.45  1119.55  1122.94
eigval :     1123.19  1129.84  1131.73  1138.75  1146.06  1149.58
eigval :     1158.20  1159.61  1168.60  1172.20  1175.61  1180.97
eigval :     1182.58  1183.13  1184.30  1185.03  1186.65  1190.74
eigval :     1192.52  1194.45  1197.38  1201.20  1212.87  1219.81
eigval :     1222.62  1224.15  1229.20  1231.07  1234.71  1241.15
eigval :     1245.12  1258.97  1266.37  1271.19  1275.67  1279.66
eigval :     1280.71  1281.89  1289.57  1294.92  1305.59  1308.35
eigval :     1312.08  1314.06  1315.85  1318.46  1321.60  1323.89
eigval :     1326.76  1329.44  1330.20  1336.29  1344.58  1349.20
eigval :     1357.83  1373.35  1384.60  1397.76  1403.80  1408.04
eigval :     1419.97  1421.90  1429.48  1433.36  1435.74  1438.89
eigval :     1444.00  1452.24  1453.52  1458.35  1461.39  1464.97
eigval :     1466.44  1471.41  1471.76  1474.59  1483.49  1487.64
eigval :     1504.08  1507.58  1510.17  1524.39  1525.98  1583.53
eigval :     1584.07  1587.00  1594.59  1597.54  1601.46  1642.44
eigval :     1710.28  1710.36  1730.06  1763.00  1767.65  1771.80
eigval :     2850.25  2860.42  2896.48  2902.75  2919.12  2953.14
eigval :     2956.09  2974.39  2981.39  2982.91  2997.95  3002.21
eigval :     3003.92  3004.38  3006.03  3017.01  3017.77  3029.89
eigval :     3030.78  3033.08  3037.97  3040.59  3043.63  3049.00
eigval :     3049.15  3051.04  3053.95  3056.03  3065.35  3071.49
eigval :     3073.59  3079.08  3081.98  3083.32  3086.10  3088.93
eigval :     3090.74  3091.78  3092.73  3094.64  3096.75  3099.43
eigval :     3099.67  3100.82  3108.49  3109.71  3142.03  3375.09
eigval :     3400.91  3472.74  3489.37
           -------------------------------------------------
          |                Property Printout                |
           -------------------------------------------------

    * Orbital Energies and Occupations

         #    Occupation            Energy/Eh            Energy/eV
      -------------------------------------------------------------
         1        2.0000           -0.7804481             -21.2371
       ...           ...                  ...                  ...
       152        2.0000           -0.4320381             -11.7564
       153        2.0000           -0.4314115             -11.7393
       154        2.0000           -0.4252435             -11.5715
       155        2.0000           -0.4239197             -11.5354
       156        2.0000           -0.4221856             -11.4883
       157        2.0000           -0.4218402             -11.4789
       158        2.0000           -0.4215639             -11.4713
       159        2.0000           -0.4189609             -11.4005
       160        2.0000           -0.4162716             -11.3273
       161        2.0000           -0.4127661             -11.2319
       162        2.0000           -0.4113741             -11.1941
       163        2.0000           -0.4094790             -11.1425
       164        2.0000           -0.4032780             -10.9738 (HOMO)
       165                         -0.2902080              -7.8970 (LUMO)
       166                         -0.2872694              -7.8170
       167                         -0.2681060              -7.2955
       168                         -0.2598640              -7.0713
       169                         -0.2556571              -6.9568
       170                         -0.2505584              -6.8180
       171                         -0.2490196              -6.7762
       172                         -0.2444072              -6.6507
       173                         -0.2421507              -6.5893
       174                         -0.2399099              -6.5283
       175                         -0.2280352              -6.2052
       ...                                ...                  ...
       299                          0.6734679              18.3260
      -------------------------------------------------------------
                  HL-Gap            0.1130700 Eh            3.0768 eV
             Fermi-level           -0.3467430 Eh           -9.4354 eV

     #   Z          covCN         q      C6AA      α(0)
     1   6          2.961    -0.050    29.232     8.868
     2   6          2.964    -0.005    28.135     8.700
     3   6          3.756    -0.121    22.879     6.820
     4   1          0.924     0.081     1.971     2.196
     5   1          0.925     0.074     2.043     2.235
     6   1          0.925     0.062     2.172     2.305
     7   6          3.770     0.103    18.914     6.198
     8   6          3.812    -0.068    21.785     6.644
     9   1          0.925     0.052     2.293     2.368
    10   1          0.924     0.080     1.977     2.199
    11   6          3.779     0.133    18.449     6.119
    12   8          1.657    -0.440    21.637     6.279
    13   1          0.805     0.308     0.697     1.311
    14   6          3.901     0.000    20.525     6.440
    15   6          3.762    -0.122    22.874     6.818
    16   1          0.926     0.047     2.362     2.403
    17   1          0.925     0.061     2.186     2.312
    18   1          0.925     0.049     2.338     2.391
    19   6          3.759    -0.119    22.832     6.812
    20   1          0.925     0.068     2.107     2.270
    21   1          0.925     0.039     2.458     2.452
    22   1          0.925     0.055     2.258     2.350
    23   6          3.741     0.090    19.166     6.246
    24   1          0.924     0.060     2.194     2.316
    25   8          1.705    -0.270    18.478     5.804
    26   6          2.720     0.357    20.937     7.490
    27   8          0.856    -0.428    22.245     6.324
    28   6          2.973    -0.019    28.480     8.754
    29   6          2.924    -0.017    28.435     8.745
    30   6          2.918    -0.024    28.608     8.771
    31   6          2.920    -0.020    28.504     8.755
    32   6          2.918    -0.025    28.632     8.775
    33   6          2.921    -0.025    28.632     8.775
    34   1          0.926     0.058     2.227     2.334
    35   1          0.926     0.043     2.411     2.428
    36   1          0.926     0.045     2.378     2.411
    37   1          0.926     0.047     2.355     2.400
    38   1          0.926     0.064     2.157     2.297
    39   6          3.843    -0.050    21.430     6.585
    40   1          0.924     0.064     2.156     2.296
    41   6          3.832     0.139    18.314     6.089
    42   6          4.026     0.082    19.147     6.216
    43   1          0.925     0.051     2.309     2.376
    44   1          0.924     0.053     2.279     2.361
    45   8          1.739    -0.328    19.475     5.959
    46   6          4.076     0.110    18.705     6.143
    47   6          3.804    -0.080    22.020     6.681
    48   1          0.925     0.072     2.066     2.248
    49   1          0.924     0.094     1.840     2.121
    50   6          3.743     0.122    18.657     6.162
    51   8          1.659    -0.429    21.412     6.247
    52   1          0.805     0.309     0.694     1.308
    53   1          0.923     0.029     2.606     2.525
    54   6          3.891    -0.024    20.950     6.507
    55   6          2.832     0.217    23.416     7.930
    56   8          0.857    -0.360    20.895     6.129
    57   6          3.737     0.083    19.279     6.266
    58   1          0.923     0.095     1.829     2.115
    59   8          1.703    -0.266    18.409     5.793
    60   6          2.689     0.365    20.803     7.464
    61   8          0.857    -0.377    21.223     6.177
    62   6          3.753    -0.153    23.513     6.915
    63   1          0.925     0.073     2.050     2.239
    64   1          0.925     0.087     1.905     2.158
    65   1          0.925     0.071     2.072     2.251
    66   6          3.756    -0.114    22.739     6.799
    67   1          0.925     0.038     2.478     2.462
    68   1          0.925     0.068     2.112     2.272
    69   1          0.925     0.080     1.974     2.197
    70   1          0.924     0.042     2.423     2.434
    71   8          1.704    -0.281    18.669     5.834
    72   6          2.704     0.365    20.816     7.468
    73   8          0.856    -0.424    22.172     6.313
    74   6          3.754    -0.155    23.553     6.920
    75   1          0.925     0.113     1.668     2.020
    76   1          0.925     0.070     2.084     2.258
    77   1          0.925     0.087     1.907     2.160
    78   1          0.924     0.084     1.936     2.176
    79   8          1.703    -0.257    18.262     5.770
    80   6          2.721     0.343    21.166     7.531
    81   8          0.856    -0.407    21.814     6.262
    82   6          3.728     0.085    19.256     6.265
    83   8          1.656    -0.429    21.413     6.247
    84   1          0.804     0.322     0.658     1.274
    85   1          0.923     0.064     2.157     2.297
    86   6          3.791     0.030    20.081     6.382
    87   7          2.690    -0.193    25.178     7.452
    88   6          2.755     0.273    22.378     7.746
    89   8          0.860    -0.441    22.517     6.362
    90   6          2.975    -0.015    28.380     8.738
    91   6          2.922    -0.030    28.750     8.793
    92   6          2.919    -0.028    28.689     8.784
    93   6          2.920    -0.025    28.625     8.774
    94   6          2.919    -0.026    28.644     8.777
    95   6          2.924    -0.020    28.508     8.756
    96   1          0.926     0.051     2.307     2.375
    97   1          0.926     0.042     2.421     2.433
    98   1          0.926     0.040     2.452     2.449
    99   1          0.926     0.038     2.478     2.462
   100   1          0.926     0.034     2.531     2.488
   101   1          0.860     0.192     1.145     1.677
   102   6          2.972    -0.003    28.107     8.696
   103   6          2.923    -0.039    28.963     8.825
   104   6          2.919    -0.029    28.736     8.791
   105   6          2.920    -0.028    28.706     8.786
   106   6          2.919    -0.026    28.647     8.777
   107   6          2.924    -0.036    28.887     8.814
   108   1          0.926     0.047     2.362     2.403
   109   1          0.926     0.041     2.441     2.443
   110   1          0.926     0.037     2.487     2.466
   111   1          0.926     0.035     2.521     2.483
   112   1          0.926     0.030     2.582     2.513
   113   1          0.924     0.076     2.019     2.222

 Mol. C6AA /au·bohr⁶  :     137933.028007
 Mol. C8AA /au·bohr⁸  :    3235427.225723
 Mol. α(0) /au        :        564.998109


Wiberg/Mayer (AO) data.
largest (>0.10) Wiberg bond orders for each atom

 ---------------------------------------------------------------------------
     #   Z sym  total        # sym  WBO       # sym  WBO       # sym  WBO
 ---------------------------------------------------------------------------
     1   6      3.967 --     2      1.799    14      0.991    57      0.965
     2   6      3.981 --     1      1.799     3      1.037     7      0.997
     3   6      3.990 --     2      1.037     6      0.974     5      0.973
                             4      0.945
     4   1      0.993 --     3      0.945
     5   1      0.994 --     3      0.973
     6   1      0.995 --     3      0.974
     7   6      3.911 --     2      0.997     8      0.968    78      0.934
                            79      0.913
     8   6      3.989 --    11      0.981     9      0.970     7      0.968
                            10      0.966
     9   1      0.997 --     8      0.970
    10   1      0.993 --     8      0.966
    11   6      3.948 --    12      1.000     8      0.981    23      0.941
                            14      0.923
    12   8      1.986 --    11      1.000    13      0.874
    13   1      0.905 --    12      0.874
    14   6      3.987 --    15      1.004     1      0.991    19      0.980
                            11      0.923
    15   6      3.991 --    14      1.004    18      0.974    17      0.972
                            16      0.952
    16   1      0.998 --    15      0.952
    17   1      0.996 --    15      0.972
    18   1      0.997 --    15      0.974
    19   6      3.989 --    21      0.982    22      0.981    14      0.980
                            20      0.977
    20   1      0.995 --    19      0.977
    21   1      0.998 --    19      0.982
    22   1      0.996 --    19      0.981
    23   6      3.923 --    39      0.969    24      0.946    11      0.941
                            25      0.938
    24   1      0.996 --    23      0.946
    25   8      2.306 --    26      1.112    23      0.938    27      0.165
    26   6      3.910 --    27      1.707    25      1.112    28      1.007
    27   8      2.023 --    26      1.707    25      0.165
    28   6      3.986 --    29      1.387    33      1.382    26      1.007
                            31      0.102
    29   6      3.987 --    30      1.452    28      1.387    38      0.966
                            32      0.107
    30   6      3.991 --    29      1.452    31      1.435    37      0.970
                            33      0.108
    31   6      3.990 --    30      1.435    32      1.430    36      0.970
                            28      0.102
    32   6      3.992 --    33      1.455    31      1.430    35      0.970
                            29      0.107
    33   6      3.989 --    32      1.455    28      1.382    34      0.963
                            30      0.108
    34   1      0.997 --    33      0.963
    35   1      0.998 --    32      0.970
    36   1      0.998 --    31      0.970
    37   1      0.997 --    30      0.970
    38   1      0.996 --    29      0.966
    39   6      3.987 --    54      0.972    23      0.969    41      0.967
                            40      0.947
    40   1      0.996 --    39      0.947
    41   6      3.923 --    42      0.976    39      0.967    46      0.954
                            71      0.931
    42   6      3.950 --    45      0.977    41      0.976    43      0.968
                            44      0.968
    43   1      0.997 --    42      0.968
    44   1      0.997 --    42      0.968
    45   8      2.034 --    42      0.977    46      0.961
    46   6      3.946 --    47      0.997    70      0.963    45      0.961
                            41      0.954
    47   6      3.986 --    46      0.997    50      0.984    48      0.969
                            49      0.961
    48   1      0.994 --    47      0.969
    49   1      0.991 --    47      0.961
    50   6      3.959 --    51      1.021    47      0.984    53      0.950
                            54      0.894
    51   8      1.986 --    50      1.021    52      0.870
    52   1      0.904 --    51      0.870
    53   1      0.999 --    50      0.950
    54   6      3.982 --    66      0.999    39      0.972    55      0.961
                            50      0.894
    55   6      3.915 --    56      1.813    54      0.961    57      0.960
    56   8      2.077 --    55      1.813
    57   6      3.939 --     1      0.965    55      0.960    59      0.939
                            58      0.908
    58   1      0.991 --    57      0.908
    59   8      2.303 --    60      1.090    57      0.939    61      0.156
    60   6      3.910 --    61      1.775    59      1.090    62      0.994
    61   8      2.062 --    60      1.775    59      0.156
    62   6      3.992 --    60      0.994    63      0.982    65      0.959
                            64      0.951
    63   1      0.995 --    62      0.982
    64   1      0.992 --    62      0.951
    65   1      0.995 --    62      0.959
    66   6      3.985 --    54      0.999    69      0.976    68      0.975
                            67      0.973
    67   1      0.999 --    66      0.973
    68   1      0.995 --    66      0.975
    69   1      0.993 --    66      0.976
    70   1      0.998 --    46      0.963
    71   8      2.296 --    72      1.108    41      0.931    73      0.163
    72   6      3.906 --    73      1.738    71      1.108    74      1.000
    73   8      2.027 --    72      1.738    71      0.163
    74   6      3.982 --    72      1.000    76      0.968    75      0.958
                            77      0.947
    75   1      0.987 --    74      0.958
    76   1      0.995 --    74      0.968
    77   1      0.992 --    74      0.947
    78   1      0.992 --     7      0.934
    79   8      2.330 --    80      1.159     7      0.913    81      0.172
    80   6      3.916 --    81      1.735    79      1.159    82      0.943
    81   8      2.056 --    80      1.735    79      0.172
    82   6      3.966 --    83      1.026    85      0.943    80      0.943
                            86      0.914
    83   8      1.974 --    82      1.026    84      0.860
    84   1      0.896 --    83      0.860
    85   1      0.995 --    82      0.943
    86   6      3.969 --    87      1.001   102      0.984   113      0.946
                            82      0.914
    87   7      3.430 --    88      1.229    86      1.001   101      0.920
                            89      0.191
    88   6      3.944 --    89      1.662    87      1.229    90      0.983
    89   8      2.000 --    88      1.662    87      0.191
    90   6      3.988 --    95      1.401    91      1.395    88      0.983
                            93      0.108
    91   6      3.991 --    92      1.447    90      1.395   100      0.968
                            94      0.110
    92   6      3.992 --    91      1.447    93      1.436    99      0.970
                            95      0.110
    93   6      3.992 --    94      1.438    92      1.436    98      0.971
                            90      0.108
    94   6      3.992 --    95      1.446    93      1.438    97      0.970
                            91      0.110
    95   6      3.990 --    94      1.446    90      1.401    96      0.969
                            92      0.110
    96   1      0.997 --    95      0.969
    97   1      0.998 --    94      0.970
    98   1      0.998 --    93      0.971
    99   1      0.998 --    92      0.970
   100   1      0.999 --    91      0.968
   101   1      0.962 --    87      0.920
   102   6      3.986 --   103      1.415   107      1.408    86      0.984
                           105      0.109
   103   6      3.992 --   104      1.441   102      1.415   112      0.963
                           106      0.110
   104   6      3.992 --   103      1.441   105      1.441   111      0.966
                           107      0.112
   105   6      3.991 --   104      1.441   106      1.437   110      0.971
                           102      0.109
   106   6      3.991 --   107      1.447   105      1.437   109      0.970
                           103      0.110
   107   6      3.990 --   106      1.447   102      1.408   108      0.968
                           104      0.112
   108   1      0.998 --   107      0.968
   109   1      0.998 --   106      0.970
   110   1      0.998 --   105      0.971
   111   1      0.998 --   104      0.966
   112   1      0.999 --   103      0.963
   113   1      0.994 --    86      0.946
 ---------------------------------------------------------------------------

Topologies differ in total number of bonds
Writing topology from bond orders to xtbtopo.mol

molecular dipole:
                 x           y           z       tot (Debye)
 q only:        2.468       1.553       2.219
   full:        2.593       1.678       2.636      10.320
molecular quadrupole (traceless):
                xx          xy          yy          xz          yz          zz
 q only:       13.125       1.087      -3.586     -16.025      -8.366      -9.540
  q+dip:       11.266       3.458      -4.992     -25.228      -6.117      -6.275
   full:        8.780       2.201      -0.258     -23.291     -10.161      -8.521

           -------------------------------------------------
          |               Frequency Printout                |
           -------------------------------------------------
 projected vibrational frequencies (cm⁻¹)
eigval :       -0.00    -0.00    -0.00     0.00     0.00     0.00
eigval :        0.87    14.68    18.65    22.86    27.47    29.31
eigval :       33.73    35.61    41.50    43.42    50.77    55.70
eigval :       56.87    62.21    64.44    65.72    71.48    77.73
eigval :       78.50    83.38    85.24    88.07    94.51   107.68
eigval :      109.25   109.54   125.48   140.24   142.50   149.08
eigval :      151.44   157.68   165.56   171.01   183.10   187.13
eigval :      189.09   195.38   199.84   202.81   210.37   213.25
eigval :      221.48   226.22   241.98   243.38   251.41   256.68
eigval :      258.50   263.17   266.01   275.76   280.91   291.95
eigval :      299.33   303.54   311.80   314.35   321.04   328.62
eigval :      334.84   338.01   347.51   349.70   355.28   358.10
eigval :      365.94   373.41   374.13   380.52   381.31   381.97
eigval :      385.49   386.54   392.43   397.31   405.93   412.17
eigval :      416.53   424.31   428.56   434.13   448.81   469.80
eigval :      484.75   490.30   502.62   512.08   519.85   529.06
eigval :      541.40   545.24   549.88   555.61   569.07   579.84
eigval :      583.60   585.20   588.56   589.98   595.08   611.23
eigval :      615.28   620.09   641.34   646.30   648.14   651.54
eigval :      661.39   664.93   666.31   676.38   686.34   693.38
eigval :      695.52   696.60   728.40   742.99   756.16   765.68
eigval :      771.15   772.20   775.31   781.88   789.63   804.47
eigval :      829.63   843.55   848.09   853.62   864.24   877.70
eigval :      878.14   878.63   884.15   898.81   903.74   910.03
eigval :      914.13   915.34   927.35   930.03   934.84   935.22
eigval :      936.77   942.70   944.34   948.86   951.45   962.87
eigval :      967.17   979.58   979.91   983.79   984.91   993.67
eigval :      996.22  1005.29  1006.04  1007.02  1011.11  1012.67
eigval :     1016.34  1021.72  1026.09  1028.30  1043.05  1047.45
eigval :     1060.33  1061.63  1066.47  1070.81  1071.79  1075.48
eigval :     1077.86  1084.39  1085.00  1087.68  1092.67  1096.73
eigval :     1101.80  1106.10  1109.31  1117.45  1119.55  1122.94
eigval :     1123.19  1129.84  1131.73  1138.75  1146.06  1149.58
eigval :     1158.20  1159.61  1168.60  1172.20  1175.61  1180.97
eigval :     1182.58  1183.13  1184.30  1185.03  1186.65  1190.74
eigval :     1192.52  1194.45  1197.38  1201.20  1212.87  1219.81
eigval :     1222.62  1224.15  1229.20  1231.07  1234.71  1241.15
eigval :     1245.12  1258.97  1266.37  1271.19  1275.67  1279.66
eigval :     1280.71  1281.89  1289.57  1294.92  1305.59  1308.35
eigval :     1312.08  1314.06  1315.85  1318.46  1321.60  1323.89
eigval :     1326.76  1329.44  1330.20  1336.29  1344.58  1349.20
eigval :     1357.83  1373.35  1384.60  1397.76  1403.80  1408.04
eigval :     1419.97  1421.90  1429.48  1433.36  1435.74  1438.89
eigval :     1444.00  1452.24  1453.52  1458.35  1461.39  1464.97
eigval :     1466.44  1471.41  1471.76  1474.59  1483.49  1487.64
eigval :     1504.08  1507.58  1510.17  1524.39  1525.98  1583.53
eigval :     1584.07  1587.00  1594.59  1597.54  1601.46  1642.44
eigval :     1710.28  1710.36  1730.06  1763.00  1767.65  1771.80
eigval :     2850.25  2860.42  2896.48  2902.75  2919.12  2953.14
eigval :     2956.09  2974.39  2981.39  2982.91  2997.95  3002.21
eigval :     3003.92  3004.38  3006.03  3017.01  3017.77  3029.89
eigval :     3030.78  3033.08  3037.97  3040.59  3043.63  3049.00
eigval :     3049.15  3051.04  3053.95  3056.03  3065.35  3071.49
eigval :     3073.59  3079.08  3081.98  3083.32  3086.10  3088.93
eigval :     3090.74  3091.78  3092.73  3094.64  3096.75  3099.43
eigval :     3099.67  3100.82  3108.49  3109.71  3142.03  3375.09
eigval :     3400.91  3472.74  3489.37
 reduced masses (amu)
    1:      7.18    2:      7.33    3:      7.17    4:      7.41    5:      7.07    6:      7.17
    7:      5.21    8:      4.56    9:      4.80   10:      5.65   11:      5.93   12:      5.71
   13:      6.85   14:      5.25   15:      6.22   16:      5.37   17:      6.33   18:      7.84
   19:      5.09   20:      5.67   21:      5.11   22:      5.02   23:      4.57   24:      5.48
   25:      3.93   26:      5.80   27:      6.20   28:      4.23   29:      5.51   30:      5.13
   31:      4.64   32:      5.99   33:      4.52   34:      3.98   35:      4.60   36:      4.68
   37:      5.01   38:      4.67   39:      4.06   40:      3.58   41:      4.65   42:      3.13
   43:      1.93   44:      1.53   45:      3.56   46:      3.22   47:      1.75   48:      1.76
   49:      5.03   50:      2.30   51:      2.25   52:      2.26   53:      2.63   54:      2.30
   55:      1.30   56:      3.89   57:      3.36   58:      2.85   59:      5.06   60:      3.65
   61:      3.36   62:      3.58   63:      3.26   64:      5.74   65:      2.39   66:      2.44
   67:      3.96   68:      4.27   69:      6.39   70:      3.59   71:      2.39   72:      2.71
   73:      3.74   74:      2.01   75:      2.02   76:      3.08   77:      3.05   78:      3.01
   79:      2.62   80:      4.34   81:      4.44   82:      3.58   83:      3.20   84:      4.17
   85:      5.93   86:      4.13   87:      3.86   88:      4.63   89:      3.80   90:      3.95
   91:      4.40   92:      3.27   93:      3.91   94:      4.44   95:      4.79   96:      4.49
   97:      5.75   98:      4.48   99:      2.90  100:      4.70  101:      3.38  102:      4.25
  103:      3.52  104:      6.13  105:      6.61  106:      6.44  107:      5.75  108:      3.82
  109:      4.43  110:      3.06  111:      5.10  112:      3.59  113:      3.71  114:      4.36
  115:      4.91  116:      4.84  117:      4.58  118:      2.28  119:      3.62  120:      3.06
  121:      2.46  122:      3.99  123:      4.47  124:      3.08  125:      2.64  126:      3.02
  127:      3.90  128:      3.08  129:      1.72  130:      1.83  131:      4.53  132:      3.92
  133:      3.84  134:      3.62  135:      6.16  136:      3.94  137:      2.91  138:      1.25
  139:      1.27  140:      1.25  141:      2.41  142:      3.09  143:      1.31  144:      1.27
  145:      1.25  146:      3.37  147:      2.41  148:      1.26  149:      1.28  150:      2.11
  151:      1.28  152:      1.37  153:      1.35  154:      1.36  155:      2.56  156:      2.40
  157:      3.40  158:      2.03  159:      5.75  160:      5.49  161:      4.63  162:      1.87
  163:      2.09  164:      1.76  165:      1.73  166:      1.72  167:      2.12  168:      1.81
  169:      1.81  170:      2.62  171:      3.26  172:      2.73  173:      2.44  174:      2.77
  175:      3.27  176:      3.77  177:      4.66  178:      3.10  179:      2.83  180:      1.99
  181:      2.11  182:      2.54  183:      2.12  184:      2.96  185:      3.97  186:      2.77
  187:      3.41  188:      2.82  189:      2.29  190:      1.39  191:      2.40  192:      1.95
  193:      3.29  194:      3.11  195:      2.04  196:      1.30  197:      1.22  198:      1.92
  199:      2.12  200:      2.42  201:      2.72  202:      1.94  203:      1.75  204:      2.08
  205:      1.52  206:      1.41  207:      1.07  208:      1.45  209:      1.73  210:      1.38
  211:      3.75  212:      1.21  213:      1.17  214:      2.92  215:      1.64  216:      1.85
  217:      2.43  218:      1.54  219:      1.53  220:      1.75  221:      2.87  222:      1.32
  223:      1.59  224:      1.57  225:      1.52  226:      1.74  227:      1.34  228:      1.43
  229:      1.31  230:      1.64  231:      2.45  232:      1.46  233:      1.28  234:      1.29
  235:      3.30  236:      1.27  237:      1.29  238:      6.80  239:      1.45  240:      1.51
  241:      8.54  242:      3.47  243:      1.49  244:      1.36  245:      1.44  246:      1.38
  247:      1.27  248:      1.25  249:      1.18  250:      2.87  251:      1.23  252:      1.21
  253:      1.20  254:      1.16  255:      2.92  256:      1.80  257:      1.40  258:      2.66
  259:      1.07  260:      1.07  261:      1.06  262:      2.82  263:      1.10  264:      1.07
  265:      2.97  266:      1.95  267:      1.21  268:      1.20  269:      1.07  270:      1.06
  271:      1.06  272:      1.06  273:      1.06  274:      1.06  275:      1.06  276:      8.25
  277:      7.99  278:      8.05  279:      7.78  280:      7.86  281:      7.90  282:      9.89
  283:     11.59  284:     11.07  285:     12.92  286:     12.34  287:     12.09  288:     12.34
  289:      1.07  290:      1.07  291:      1.07  292:      1.07  293:      1.07  294:      1.07
  295:      1.09  296:      1.08  297:      1.07  298:      1.06  299:      1.10  300:      1.07
  301:      1.06  302:      1.10  303:      1.07  304:      1.05  305:      1.09  306:      1.09
  307:      1.09  308:      1.05  309:      1.04  310:      1.07  311:      1.06  312:      1.09
  313:      1.09  314:      1.08  315:      1.05  316:      1.06  317:      1.07  318:      1.07
  319:      1.08  320:      1.08  321:      1.08  322:      1.08  323:      1.08  324:      1.08
  325:      1.08  326:      1.07  327:      1.07  328:      1.09  329:      1.09  330:      1.09
  331:      1.09  332:      1.09  333:      1.09  334:      1.08  335:      1.07  336:      1.07
  337:      1.07  338:      1.06  339:      1.07
 IR intensities (km·mol⁻¹)
    1:      0.20    2:      0.13    3:      0.13    4:      0.04    5:      0.06    6:      0.11
    7:      0.06    8:      0.67    9:      0.65   10:      1.41   11:      0.68   12:      0.63
   13:      1.31   14:      0.36   15:      1.03   16:      2.57   17:      6.96   18:      0.15
   19:      4.27   20:      0.42   21:      0.81   22:      7.32   23:      2.95   24:      3.70
   25:      4.21   26:      3.20   27:      8.35   28:      7.08   29:      4.35   30:      0.74
   31:      2.06   32:      5.51   33:      2.37   34:      3.36   35:      4.30   36:      1.82
   37:      5.02   38:      1.21   39:      3.42   40:      2.98   41:      4.62   42:      2.40
   43:      8.68   44:     14.42   45:     13.29   46:     20.40   47:      0.86   48:     24.55
   49:      0.45   50:      3.78   51:     19.98   52:     17.06   53:      9.25   54:     22.34
   55:      0.68   56:      8.26   57:      5.56   58:     14.16   59:      3.85   60:     28.60
   61:      0.83   62:      9.44   63:      8.47   64:     14.03   65:      1.90   66:     22.16
   67:     26.65   68:      7.15   69:      5.41   70:     12.26   71:     23.92   72:      1.03
   73:      1.86   74:     43.60   75:     49.84   76:      3.60   77:      3.31   78:      1.66
   79:     17.76   80:      7.21   81:      6.82   82:      4.56   83:      4.35   84:     33.82
   85:     13.04   86:     29.16   87:     13.09   88:      7.04   89:     12.99   90:     19.21
   91:      6.63   92:      4.10   93:     10.36   94:      5.85   95:      8.50   96:      8.46
   97:     16.96   98:      2.59   99:     15.14  100:     17.11  101:      3.26  102:      3.13
  103:      8.97  104:     19.75  105:      6.40  106:      9.10  107:      6.94  108:      8.16
  109:      7.43  110:      8.71  111:      4.18  112:     20.80  113:     10.40  114:     13.62
  115:      8.57  116:      4.09  117:      6.91  118:     73.78  119:     55.70  120:     28.82
  121:     10.24  122:      7.73  123:     17.84  124:      4.80  125:     51.73  126:     38.75
  127:      1.24  128:     68.91  129:      1.85  130:     52.31  131:      2.86  132:      2.95
  133:      2.78  134:      4.96  135:      2.54  136:      2.39  137:      2.37  138:     38.48
  139:     22.09  140:     17.08  141:      6.24  142:     15.25  143:     30.30  144:      4.44
  145:     36.22  146:     22.12  147:      3.61  148:      9.58  149:    102.19  150:      0.73
  151:     78.41  152:      6.55  153:     27.84  154:      3.81  155:     11.82  156:      8.81
  157:     11.27  158:     38.21  159:      4.88  160:      1.01  161:     30.97  162:     27.60
  163:     26.92  164:     16.21  165:     24.89  166:     19.62  167:     15.41  168:     35.86
  169:     62.48  170:     29.87  171:      8.08  172:      2.20  173:     23.92  174:      9.20
  175:     17.05  176:     12.57  177:     18.37  178:      9.87  179:     15.28  180:      2.00
  181:     31.92  182:     24.35  183:      5.89  184:     52.51  185:     12.74  186:     15.24
  187:     11.64  188:     23.18  189:      8.70  190:      2.08  191:      2.71  192:     14.19
  193:     22.45  194:     17.27  195:     18.86  196:     42.81  197:      1.99  198:     16.46
  199:     15.03  200:     23.07  201:      8.08  202:     50.89  203:     83.37  204:     26.92
  205:     22.84  206:     19.20  207:     30.25  208:     33.01  209:     44.26  210:      0.54
  211:     95.37  212:      8.77  213:     44.64  214:     20.09  215:     19.49  216:     52.60
  217:      4.19  218:     47.81  219:     20.94  220:     69.40  221:     85.75  222:    112.37
  223:     47.32  224:     18.35  225:     17.28  226:     29.16  227:     91.58  228:     25.56
  229:     13.31  230:     33.92  231:     36.98  232:     10.94  233:      6.36  234:     53.39
  235:     52.98  236:     28.42  237:      3.22  238:     24.13  239:     28.05  240:     31.23
  241:     20.27  242:     26.92  243:     16.57  244:     29.17  245:     20.84  246:     10.97
  247:     21.83  248:     63.38  249:      9.02  250:     89.70  251:     24.91  252:     41.52
  253:     43.51  254:     23.49  255:     18.63  256:     29.56  257:     34.28  258:     32.12
  259:     22.40  260:     57.94  261:     20.00  262:     40.57  263:     49.27  264:     35.97
  265:     32.15  266:      8.67  267:     77.41  268:     82.60  269:     31.90  270:     29.37
  271:     23.46  272:     13.88  273:      5.93  274:     23.58  275:     14.34  276:      5.52
  277:     22.88  278:      1.26  279:     14.52  280:     27.58  281:      7.58  282:     17.64
  283:     44.29  284:    110.70  285:     80.69  286:     87.14  287:     19.20  288:    114.63
  289:     41.93  290:     75.00  291:     18.57  292:     43.83  293:     53.51  294:     11.05
  295:     29.59  296:     50.33  297:     14.38  298:     16.61  299:     51.17  300:     16.34
  301:     33.23  302:     34.26  303:     20.99  304:     26.22  305:     33.97  306:      8.25
  307:     40.39  308:     20.42  309:     44.09  310:     27.44  311:      7.87  312:     22.78
  313:     46.94  314:     27.56  315:     75.52  316:     26.46  317:      5.17  318:    164.68
  319:     52.14  320:     77.36  321:    257.20  322:    218.03  323:     19.46  324:     65.87
  325:     38.35  326:      8.35  327:     22.59  328:     79.39  329:      9.41  330:      5.85
  331:    139.95  332:     30.43  333:    176.99  334:     75.41  335:     17.24  336:    126.77
  337:     24.60  338:      1.89  339:     66.34
 Raman intensities (Ä⁴*amu⁻¹)
    1:      0.00    2:      0.00    3:      0.00    4:      0.00    5:      0.00    6:      0.00
    7:      0.00    8:      0.00    9:      0.00   10:      0.00   11:      0.00   12:      0.00
   13:      0.00   14:      0.00   15:      0.00   16:      0.00   17:      0.00   18:      0.00
   19:      0.00   20:      0.00   21:      0.00   22:      0.00   23:      0.00   24:      0.00
   25:      0.00   26:      0.00   27:      0.00   28:      0.00   29:      0.00   30:      0.00
   31:      0.00   32:      0.00   33:      0.00   34:      0.00   35:      0.00   36:      0.00
   37:      0.00   38:      0.00   39:      0.00   40:      0.00   41:      0.00   42:      0.00
   43:      0.00   44:      0.00   45:      0.00   46:      0.00   47:      0.00   48:      0.00
   49:      0.00   50:      0.00   51:      0.00   52:      0.00   53:      0.00   54:      0.00
   55:      0.00   56:      0.00   57:      0.00   58:      0.00   59:      0.00   60:      0.00
   61:      0.00   62:      0.00   63:      0.00   64:      0.00   65:      0.00   66:      0.00
   67:      0.00   68:      0.00   69:      0.00   70:      0.00   71:      0.00   72:      0.00
   73:      0.00   74:      0.00   75:      0.00   76:      0.00   77:      0.00   78:      0.00
   79:      0.00   80:      0.00   81:      0.00   82:      0.00   83:      0.00   84:      0.00
   85:      0.00   86:      0.00   87:      0.00   88:      0.00   89:      0.00   90:      0.00
   91:      0.00   92:      0.00   93:      0.00   94:      0.00   95:      0.00   96:      0.00
   97:      0.00   98:      0.00   99:      0.00  100:      0.00  101:      0.00  102:      0.00
  103:      0.00  104:      0.00  105:      0.00  106:      0.00  107:      0.00  108:      0.00
  109:      0.00  110:      0.00  111:      0.00  112:      0.00  113:      0.00  114:      0.00
  115:      0.00  116:      0.00  117:      0.00  118:      0.00  119:      0.00  120:      0.00
  121:      0.00  122:      0.00  123:      0.00  124:      0.00  125:      0.00  126:      0.00
  127:      0.00  128:      0.00  129:      0.00  130:      0.00  131:      0.00  132:      0.00
  133:      0.00  134:      0.00  135:      0.00  136:      0.00  137:      0.00  138:      0.00
  139:      0.00  140:      0.00  141:      0.00  142:      0.00  143:      0.00  144:      0.00
  145:      0.00  146:      0.00  147:      0.00  148:      0.00  149:      0.00  150:      0.00
  151:      0.00  152:      0.00  153:      0.00  154:      0.00  155:      0.00  156:      0.00
  157:      0.00  158:      0.00  159:      0.00  160:      0.00  161:      0.00  162:      0.00
  163:      0.00  164:      0.00  165:      0.00  166:      0.00  167:      0.00  168:      0.00
  169:      0.00  170:      0.00  171:      0.00  172:      0.00  173:      0.00  174:      0.00
  175:      0.00  176:      0.00  177:      0.00  178:      0.00  179:      0.00  180:      0.00
  181:      0.00  182:      0.00  183:      0.00  184:      0.00  185:      0.00  186:      0.00
  187:      0.00  188:      0.00  189:      0.00  190:      0.00  191:      0.00  192:      0.00
  193:      0.00  194:      0.00  195:      0.00  196:      0.00  197:      0.00  198:      0.00
  199:      0.00  200:      0.00  201:      0.00  202:      0.00  203:      0.00  204:      0.00
  205:      0.00  206:      0.00  207:      0.00  208:      0.00  209:      0.00  210:      0.00
  211:      0.00  212:      0.00  213:      0.00  214:      0.00  215:      0.00  216:      0.00
  217:      0.00  218:      0.00  219:      0.00  220:      0.00  221:      0.00  222:      0.00
  223:      0.00  224:      0.00  225:      0.00  226:      0.00  227:      0.00  228:      0.00
  229:      0.00  230:      0.00  231:      0.00  232:      0.00  233:      0.00  234:      0.00
  235:      0.00  236:      0.00  237:      0.00  238:      0.00  239:      0.00  240:      0.00
  241:      0.00  242:      0.00  243:      0.00  244:      0.00  245:      0.00  246:      0.00
  247:      0.00  248:      0.00  249:      0.00  250:      0.00  251:      0.00  252:      0.00
  253:      0.00  254:      0.00  255:      0.00  256:      0.00  257:      0.00  258:      0.00
  259:      0.00  260:      0.00  261:      0.00  262:      0.00  263:      0.00  264:      0.00
  265:      0.00  266:      0.00  267:      0.00  268:      0.00  269:      0.00  270:      0.00
  271:      0.00  272:      0.00  273:      0.00  274:      0.00  275:      0.00  276:      0.00
  277:      0.00  278:      0.00  279:      0.00  280:      0.00  281:      0.00  282:      0.00
  283:      0.00  284:      0.00  285:      0.00  286:      0.00  287:      0.00  288:      0.00
  289:      0.00  290:      0.00  291:      0.00  292:      0.00  293:      0.00  294:      0.00
  295:      0.00  296:      0.00  297:      0.00  298:      0.00  299:      0.00  300:      0.00
  301:      0.00  302:      0.00  303:      0.00  304:      0.00  305:      0.00  306:      0.00
  307:      0.00  308:      0.00  309:      0.00  310:      0.00  311:      0.00  312:      0.00
  313:      0.00  314:      0.00  315:      0.00  316:      0.00  317:      0.00  318:      0.00
  319:      0.00  320:      0.00  321:      0.00  322:      0.00  323:      0.00  324:      0.00
  325:      0.00  326:      0.00  327:      0.00  328:      0.00  329:      0.00  330:      0.00
  331:      0.00  332:      0.00  333:      0.00  334:      0.00  335:      0.00  336:      0.00
  337:      0.00  338:      0.00  339:      0.00
 output can be read by thermo (or use thermo option).
 writing <g98.out> molden fake output.
 recommended (thermochemical) frequency scaling factor: 1.0
           -------------------------------------------------
          |             Thermodynamic Functions             |
           -------------------------------------------------

Molecule has no symmetry elements
It seems to be the C1 point group
c1  symmetry found (for desy threshold:  0.10E+00) used in thermo

          ...................................................
          :                      SETUP                      :
          :.................................................:
          :  # frequencies                         332      :
          :  # imaginary freq.                       0      :
          :  linear?                             false      :
          :  only rotor calc.                    false      :
          :  symmetry                               c1      :
          :  rotational number                       1      :
          :  scaling factor                  1.0000000      :
          :  rotor cutoff                   50.0000000 cm⁻¹ :
          :  imag. cutoff                  -20.0000000 cm⁻¹ :
          :.................................................:

    mode    ω/cm⁻¹     T·S(HO)/kcal·mol⁻¹    T·S(FR)/kcal·mol⁻¹   T·S(vib)
   ------------------------------------------------------------------------
       1     14.68    -2.16093 (  0.74%)    -1.41950 ( 99.26%)    -1.42497
       2     18.65    -2.01934 (  1.90%)    -1.34867 ( 98.10%)    -1.36141
       3     22.86    -1.89896 (  4.18%)    -1.28843 ( 95.82%)    -1.31398
       4     27.47    -1.79011 (  8.35%)    -1.23394 ( 91.65%)    -1.28040
       5     29.31    -1.75184 ( 10.56%)    -1.21478 ( 89.44%)    -1.27148
       6     33.73    -1.66873 ( 17.16%)    -1.17315 ( 82.84%)    -1.25818
       7     35.61    -1.63671 ( 20.46%)    -1.15710 ( 79.54%)    -1.25523
       8     41.50    -1.54624 ( 32.19%)    -1.11173 ( 67.81%)    -1.25158
       9     43.42    -1.51955 ( 36.25%)    -1.09834 ( 63.75%)    -1.25104
      10     50.77    -1.42727 ( 51.53%)    -1.05201 ( 48.47%)    -1.24538
      11     55.70    -1.37273 ( 60.62%)    -1.02458 ( 39.38%)    -1.23564
      12     56.87    -1.36045 ( 62.60%)    -1.01841 ( 37.40%)    -1.23251
      13     62.21    -1.30759 ( 70.56%)    -0.99179 ( 29.44%)    -1.21463
      14     64.44    -1.28697 ( 73.39%)    -0.98140 ( 26.61%)    -1.20566
      15     65.72    -1.27538 ( 74.90%)    -0.97556 ( 25.10%)    -1.20014
      16     71.48    -1.22608 ( 80.68%)    -0.95069 ( 19.32%)    -1.17287
      17     77.73    -1.17689 ( 85.38%)    -0.92583 ( 14.62%)    -1.14019
      18     78.50    -1.17117 ( 85.86%)    -0.92293 ( 14.14%)    -1.13608
      19     83.38    -1.13587 ( 88.55%)    -0.90506 ( 11.45%)    -1.10944
      20     85.24    -1.12299 ( 89.41%)    -0.89853 ( 10.59%)    -1.09923
      21     88.07    -1.10392 ( 90.59%)    -0.88885 (  9.41%)    -1.08367
      22     94.51    -1.06274 ( 92.74%)    -0.86793 (  7.26%)    -1.04859
      23    107.68    -0.98699 ( 95.56%)    -0.82930 (  4.44%)    -0.97998
      24    109.25    -0.97857 ( 95.80%)    -0.82499 (  4.20%)    -0.97212
      25    109.54    -0.97706 ( 95.84%)    -0.82422 (  4.16%)    -0.97070
      26    125.48    -0.89869 ( 97.54%)    -0.78397 (  2.46%)    -0.89587
      27    140.24    -0.83499 ( 98.41%)    -0.75102 (  1.59%)    -0.83366
      28    142.50    -0.82587 ( 98.51%)    -0.74628 (  1.49%)    -0.82468
      29    149.08    -0.80023 ( 98.75%)    -0.73292 (  1.25%)    -0.79939
      30    151.44    -0.79129 ( 98.83%)    -0.72825 (  1.17%)    -0.79055
      31    157.68    -0.76845 ( 99.00%)    -0.71629 (  1.00%)    -0.76792
      32    165.56    -0.74099 ( 99.17%)    -0.70186 (  0.83%)    -0.74067
      33    171.01    -0.72282 ( 99.27%)    -0.69226 (  0.73%)    -0.72260
      34    183.10    -0.68473 ( 99.45%)    -0.67203 (  0.55%)    -0.68466
      35    187.13    -0.67264 ( 99.49%)    -0.66557 (  0.51%)    -0.67260
      36    189.09    -0.66687 ( 99.51%)    -0.66248 (  0.49%)    -0.66685
      37    195.38    -0.64883 ( 99.57%)    -0.65279 (  0.43%)    -0.64884
      38    199.84    -0.63643 ( 99.61%)    -0.64611 (  0.39%)    -0.63647
      39    202.81    -0.62834 ( 99.63%)    -0.64174 (  0.37%)    -0.62839
      40    210.37    -0.60837 ( 99.68%)    -0.63090 (  0.32%)    -0.60845
      41    213.25    -0.60096 ( 99.70%)    -0.62686 (  0.30%)    -0.60104
      42    221.48    -0.58048 ( 99.74%)    -0.61565 (  0.26%)    -0.58057
      43    226.22    -0.56910 ( 99.76%)    -0.60938 (  0.24%)    -0.56920
      44    241.98    -0.53318 ( 99.82%)    -0.58943 (  0.18%)    -0.53328
      45    243.38    -0.53011 ( 99.82%)    -0.58771 (  0.18%)    -0.53021
      46    251.41    -0.51302 ( 99.84%)    -0.57810 (  0.16%)    -0.51312
      47    256.68    -0.50215 ( 99.86%)    -0.57195 (  0.14%)    -0.50225
      48    258.50    -0.49848 ( 99.86%)    -0.56986 (  0.14%)    -0.49858
      49    263.17    -0.48916 ( 99.87%)    -0.56456 (  0.13%)    -0.48926
      50    266.01    -0.48359 ( 99.88%)    -0.56138 (  0.12%)    -0.48369
      51    275.76    -0.46506 ( 99.89%)    -0.55071 (  0.11%)    -0.46515
      52    280.91    -0.45560 ( 99.90%)    -0.54523 (  0.10%)    -0.45569
      53    291.95    -0.43609 ( 99.91%)    -0.53381 (  0.09%)    -0.43617
      54    299.33    -0.42357 ( 99.92%)    -0.52642 (  0.08%)    -0.42365
   ------------------------------------------------------------------------

   temp. (K)  partition function   enthalpy   heat capacity  entropy
                                   cal/mol     cal/K/mol   cal/K/mol   J/K/mol
 298.15  VIB  0.564E+26            34765.137    212.309    216.809
         ROT  0.116E+09              888.727      2.981     39.887
         INT  0.656E+34            35653.864    215.290    256.696
         TR   0.763E+27             1481.212      4.968     46.111
         TOT                       37135.0763   220.2582   302.8064  1266.9420

       T/K    H(0)-H(T)+PV         H(T)/Eh          T*S/Eh         G(T)/Eh
   ------------------------------------------------------------------------
    298.15    0.591785E-01    0.951681E+00    0.143873E+00    0.807808E+00
   ------------------------------------------------------------------------

         :::::::::::::::::::::::::::::::::::::::::::::::::::::
         ::                  THERMODYNAMIC                  ::
         :::::::::::::::::::::::::::::::::::::::::::::::::::::
         :: total free energy        -185.730032934749 Eh   ::
         ::.................................................::
         :: total energy             -186.537840938655 Eh   ::
         :: zero point energy           0.892502581738 Eh   ::
         :: G(RRHO) w/o ZPVE           -0.084694577833 Eh   ::
         :: G(RRHO) contrib.            0.807808003906 Eh   ::
         :::::::::::::::::::::::::::::::::::::::::::::::::::::

           -------------------------------------------------
          | TOTAL ENERGY             -186.537840938655 Eh   |
          | TOTAL ENTHALPY           -185.586159845934 Eh   |
          | TOTAL FREE ENERGY        -185.730032934749 Eh   |
          | GRADIENT NORM               0.002487032305 Eh/α |
          | HOMO-LUMO GAP               3.076789977806 eV   |
           -------------------------------------------------
########################################################################
[WARNING] Runtime exception occurred
-1- hessian_numhess: Hessian on incompletely optimized geometry!
########################################################################

------------------------------------------------------------------------
 * finished run on 2026/06/29 at 12:16:09.854     
------------------------------------------------------------------------
 total:
 * wall-time:     0 d,  0 h,  1 min, 56.122 sec
 *  cpu-time:     0 d,  0 h,  1 min, 55.644 sec
 * ratio c/w:     0.996 speedup
 SCF:
 * wall-time:     0 d,  0 h,  0 min,  1.356 sec
 *  cpu-time:     0 d,  0 h,  0 min,  1.350 sec
 * ratio c/w:     0.996 speedup
 analytical hessian:
 * wall-time:     0 d,  0 h,  1 min, 54.643 sec
 *  cpu-time:     0 d,  0 h,  1 min, 54.172 sec
 * ratio c/w:     0.996 speedup

normal termination of xtb
Note: The following floating-point exceptions are signalling: IEEE_INVALID_FLAG IEEE_DIVIDE_BY_ZERO IEEE_UNDERFLOW_FLAG IEEE_DENORMAL
