24
 xtb: 6.7.1 (b9eb0ff)
C           -3.27224054361160       -1.05528020094524        0.00767971377469
N           -2.27559458546000       -0.01975224468481       -0.00286651015121
C           -0.91313001892949       -0.20498252533510        0.00999237120270
C           -0.37077123628743        1.07315511754004        0.00452031524268
N           -1.34770178633082        2.00581407417970       -0.01311187513137
C           -2.46626112214409        1.31248213108507       -0.01489098108726
H           -3.44188296575650        1.76090109937100       -0.01595237642119
N            0.97178989972679        1.28310832369037        0.00097494904261
C            1.82857358110684        0.20333970171600       -0.00779800487775
O            3.03272144386932        0.34131456059014       -0.02470383940540
N            1.25304510374882       -1.06243752830016       -0.00966622474487
C           -0.10558804224936       -1.38602631908936        0.01065949592665
O           -0.49976290202317       -2.53891030000279        0.02518681012705
C            2.20241963617812       -2.16321206299497       -0.02365349892917
H            1.63215663159272       -3.08957610400505        0.01420589746939
H            2.81588220655210       -2.11708355747325       -0.90863065319401
H            2.85354780326539       -2.09290399054809        0.86074886130775
C            1.50579711918344        2.62672993171681        0.03490788435361
H            0.76509163839228        3.29820602567980       -0.40782982628591
H            1.74945537793806        2.92623147971791        1.05010851666447
H            2.44313757747367        2.62840322761584       -0.57418963733351
H           -2.75518217159481       -2.01944456456231       -0.03348420714042
H           -3.92522508402757       -0.96136583677073       -0.86235497514803
H           -3.87020328152739       -1.00556002746146        0.91268180479680
