113
 xtb: 6.7.1 (b9eb0ff)
C           -2.26002795142525       -2.23053391298446       -0.33402412084862
C           -0.95166953271929       -2.37423640106584       -0.56246892326506
C           -0.36254517389640       -2.46903914491331       -1.94432034350418
H           -0.40747852095404       -1.47770350649454       -2.42735294436131
H           -0.94458486321804       -3.16180497079357       -2.56541895805363
H            0.67020837691788       -2.79185031805214       -1.90303499104719
C           -0.00217516835574       -2.25945920665783        0.59117735644096
C           -0.35778374088238       -0.96999887031016        1.34662733316608
H            0.00905994072008       -0.13283483341212        0.74293004664032
H            0.16402032959297       -0.97006208070762        2.29480797447150
C           -1.87061017656924       -0.80391059189931        1.60246046650833
O           -2.12268608531983       -0.83326055832916        3.00210241153705
H           -2.04384483586832        0.07259091239383        3.36668721359077
C           -2.68594257576504       -2.02562859255105        1.10131692301150
C           -4.15194086289155       -1.71960981746120        1.40498970971680
H           -4.54119800847517       -0.90154024489719        0.82419320722036
H           -4.77558217029538       -2.58901423024048        1.25826255827038
H           -4.19493548399853       -1.43760146633566        2.46066110040723
C           -2.35332526112533       -3.27513668586237        1.95917771727367
H           -1.67843132378232       -3.01982481567930        2.77094794856036
H           -1.90018011638722       -4.06079313905593        1.34643583752331
H           -3.26357920421746       -3.67779659769055        2.38744812378401
C           -2.35698387220715        0.54870710171935        1.03320987428105
H           -3.27486910723672        0.81041099246644        1.54988793759115
O           -1.34527061205154        1.51318562836401        1.32109362702978
C           -1.21680334375053        1.96656166403714        2.52375175914124
O           -1.82544080421699        1.60884428414410        3.52441670700438
C           -0.18712401221987        3.03254205770051        2.59775666634629
C            0.01768655726344        3.67878362682428        3.81342053987117
C            0.96477666519079        4.67965202640455        3.92505118714744
C            1.71891452921685        5.04142280154791        2.81856847919741
C            1.52518356336807        4.40127787306531        1.60387997063511
C            0.57701947267717        3.39959794957816        1.49385503721112
H            0.41529730207834        2.88845337959636        0.54975863798001
H            2.11710553991641        4.69002541003711        0.74102783571049
H            2.45257832553519        5.83612047264552        2.90243704826593
H            1.10689812666860        5.19255084969488        4.87011539128144
H           -0.59268720636316        3.38445657426268        4.66263012466092
C           -2.55538537222950        0.69986401638626       -0.50890917822511
H           -1.86292230237086        0.01095721080905       -0.99159508180515
C           -2.08407735774050        2.10879948201352       -0.90233166688903
C           -2.56494282109324        3.26784488198189       -0.02685935393275
H           -3.19572342841567        3.01133334826341        0.82161075972173
H           -1.75163473904429        3.92793221520533        0.29737394686615
O           -3.32965036475299        3.84302742607487       -1.11288566543028
C           -2.75968588537884        2.89160327429046       -2.04448866529800
C           -3.82840501533099        2.25285714583958       -2.89663283295384
H           -3.62652349465309        2.39497090255019       -3.95292855832925
H           -4.78159318458799        2.74534091707627       -2.66570185370701
C           -3.97709006194489        0.76538245374427       -2.62100522580743
O           -5.20638501901325        0.40824711544763       -3.21627715556514
H           -5.59903893612058       -0.34086153667900       -2.71593528721083
H           -3.15369193483985        0.23034188961813       -3.09014093854119
C           -3.94766744742632        0.39933566252007       -1.10479238934869
C           -4.30964872208721       -1.07342749912190       -1.24276689051777
O           -5.46055378852755       -1.38151577720824       -1.44182406477241
C           -3.16255260028557       -2.00537345016479       -1.51817071639452
H           -2.55738355839075       -1.42514262447672       -2.22984454477835
O           -3.44820441992033       -3.14115050031975       -2.31329128218921
C           -4.27974999303387       -4.08604659064134       -2.05081345807128
O           -4.45234806774657       -4.95547120963506       -2.89598513873520
C           -5.00258149373104       -4.18148058028270       -0.72375176500971
H           -5.58871336366444       -5.08893585223308       -0.70567848316251
H           -5.63087902198929       -3.32198751774792       -0.58366041273439
H           -4.26434203117981       -4.23027333301235        0.09210877736702
C           -5.07996505830062        1.16310593390558       -0.41932273472391
H           -5.06588738071422        0.99620597912127        0.66575797911048
H           -4.99021528016418        2.23743915117517       -0.58680969272492
H           -6.02577504379772        0.80926938491983       -0.80936822766237
H           -2.00546326786650        3.38252679452193       -2.66105375641799
O           -0.67831305473971        2.17810058270817       -1.04596277250289
C           -0.14701666225720        1.44325843373438       -1.96810456850347
O           -0.71521899841994        0.65169650476107       -2.69857649048244
C            1.34286036688412        1.69374461711068       -2.05741668794691
H            1.75242690072546        1.08649885127461       -2.87299825108755
H            1.81854777538239        1.42706468802274       -1.13640163789913
H            1.53149451786328        2.74751976910569       -2.27142481406758
H           -0.12201119841251       -3.10685122144794        1.26132661957793
O            1.33170017486437       -2.23577453661878        0.12409706657325
C            2.18528575265749       -2.69048698229044        0.97689327275016
O            1.97812103675584       -3.03737000032226        2.13179223869398
C            3.60165791372580       -2.77434156468254        0.44899444425181
O            4.40566433770492       -3.32499546091661        1.47256533076781
H            3.80482434432837       -3.45922704440340        2.22722909622879
H            3.65896884753890       -3.40253903669351       -0.44567498891707
C            4.12742759338480       -1.37105502749171        0.08525216523421
N            3.32986567475379       -0.88161785892489       -1.00745935306855
C            3.77907364933306       -0.54235805034599       -2.23634839212290
O            3.03971495112235       -0.49418039726963       -3.20429895482052
C            5.21140478241464       -0.17777307514620       -2.35888391464339
C            5.87172538199630        0.61518341342905       -1.42649356313369
C            7.19186137687073        0.98072037991456       -1.62878399977427
C            7.86371670425767        0.55900915638299       -2.76490544280233
C            7.20767664016267       -0.21384494977678       -3.71107356566668
C            5.88595360630392       -0.56846352888109       -3.51212104524187
H            5.35745757828400       -1.17484102809533       -4.24309122813349
H            7.73208027257963       -0.55100371797077       -4.60039181871220
H            8.90400749744729        0.82761409751572       -2.91690226647303
H            7.70469520882083        1.59722009150946       -0.89925496712523
H            5.34550824264558        0.96558540507280       -0.54741515043453
H            2.35402903991601       -1.14054489495287       -0.93090883049334
C            4.05903499976501       -0.49593409168301        1.30457715528958
C            3.01475405111394        0.39201612294394        1.51454742990217
C            2.94205015538176        1.12730868851849        2.68566201936049
C            3.91498100935971        0.97849356968850        3.66065250488056
C            4.95949068285751        0.08924232188865        3.46191557810809
C            5.02675717572120       -0.64445667853576        2.28995050919321
H            5.81992371463783       -1.35857234495234        2.14259462915032
H            5.70648675786200       -0.03912146658842        4.23874736421619
H            3.84455747422181        1.55125699350381        4.58835549553231
H            2.11398152953928        1.81896675468425        2.84538200911933
H            2.25106140546313        0.51701623841945        0.75500930713439
H            5.16236300751656       -1.45126718479790       -0.23382673229769
