24
 xtb: 6.7.1 (b9eb0ff)
C           -3.27224054360967       -1.05528020094772        0.00767971377091
N           -2.27559458546204       -0.01975224468378       -0.00286651014435
C           -0.91313001893140       -0.20498252533343        0.00999237119246
C           -0.37077123628962        1.07315511754170        0.00452031523217
N           -1.34770178633346        2.00581407418185       -0.01311187513065
C           -2.46626112214684        1.31248213108601       -0.01489098107459
H           -3.44188296575770        1.76090109937103       -0.01595237641281
N            0.97178989972533        1.28310832368860        0.00097494902459
C            1.82857358110704        0.20333970171497       -0.00779800489354
O            3.03272144386946        0.34131456058952       -0.02470383943526
N            1.25304510374850       -1.06243752830058       -0.00966622474493
C           -0.10558804225054       -1.38602631908764        0.01065949592080
O           -0.49976290202316       -2.53891030000077        0.02518681012652
C            2.20241963618164       -2.16321206299243       -0.02365349889913
H            1.63215663159548       -3.08957610400541        0.01420589747088
H            2.81588220656306       -2.11708355746976       -0.90863065317807
H            2.85354780325712       -2.09290399054795        0.86074886132360
C            1.50579711918824        2.62672993171148        0.03490788438206
H            0.76509163839689        3.29820602568214       -0.40782982627624
H            1.74945537793391        2.92623147970717        1.05010851667710
H            2.44313757747931        2.62840322761690       -0.57418963731989
H           -2.75518217159275       -2.01944456456260       -0.03348420712375
H           -3.92522508401243       -0.96136583678306       -0.86235497516076
H           -3.87020328154123       -1.00556002745281        0.91268180478523
